125
Coordinates from ORCA-job pes E -2799.514789123477
  C           5.53779997950594      6.14469988513202      0.14450014898879
  N           6.12686205976656      5.97749294393491     -1.18701408975188
  H           5.41991209565606      5.93333473202730     -1.93195385609411
  C           7.13793478573569      6.94360453359294     -1.57935925480022
  H           6.92267551491928      7.96196437511155     -1.14918294968846
  C           8.53881744279977      6.52909387373292     -1.03137030755691
  H           8.37921255620543      6.24831758827259      0.03252915121432
  C           9.15860368419097      5.36061183977706     -1.78267719277935
  H          10.04981582558149      4.98006944262235     -1.24722030937305
  H           8.41696694636897      4.54440612798644     -1.87153684744860
  H           9.47139814137971      5.66099334408223     -2.80269282587105
  O           9.46672999961934      7.63632200298884     -1.09691864455135
  H           9.21828785734654      8.27740640967876     -0.40455075369158
  C           7.12739008515219      7.12339971691636     -3.12392386717227
  O           6.21195273125162      6.66005116560928     -3.82071723776985
  N           8.17656463521902      7.83102166515630     -3.63346376226250
  H           8.91122396151863      8.08547758798227     -2.95739917157845
  C           8.43520001792170      7.99920018667295     -5.05870026758312
  H           8.97550626104485      8.94974396779300     -5.22799855757522
  C           2.52369997703006      2.70850000975407      2.85089999817397
  N           3.52326288843783      2.04608244987201      3.68057879171429
  H           3.08156901446169      1.69192374924449      4.53514232001515
  C           4.69640352835858      2.84869226022193      4.04428038943449
  H           5.19372469396848      2.31936708869496      4.88345777671794
  C           5.71415511938870      2.88403904798909      2.88847416122881
  H           5.69201854136818      1.87780220688663      2.41094768502792
  H           5.41929844905148      3.61721681544849      2.10367796334232
  O           7.01283362538900      3.19236814129436      3.35379805276460
  H           7.52468731526779      2.21359249357165      3.52255841053564
  C           4.25308237580551      4.21370353040874      4.62617084801405
  O           3.50472622870540      4.24766818226677      5.61312789003307
  N           4.59461270885171      5.35136544425177      3.94169727175597
  H           5.36238162113229      5.30820415531145      3.26373229511013
  C           4.12964862139500      6.66621448230119      4.37176651934809
  H           4.03715491623266      6.63827661591604      5.47913354857468
  C           5.10846821529499      7.78249340625093      3.95778290265022
  H           5.55296406344467      7.51567545276216      2.97424398622427
  H           4.51960470528316      8.70793990523096      3.79788896739697
  C           6.22850966417292      8.08579882080201      4.97812618480327
  H           6.90849403001669      8.80444653970059      4.46631649742222
  C           5.67881197407222      8.78618450855911      6.22878777954044
  H           4.98093766247214      8.12837859934679      6.78875357324797
  H           6.50045650973147      9.05790586154676      6.92300539187287
  H           5.12524997021805      9.71194693231030      5.96875639931156
  C           7.05719298068492      6.84777709151728      5.34506974308556
  H           6.45531392776064      6.11083205240988      5.91695268090101
  H           7.44274603965659      6.33659270470198      4.44102907636936
  H           7.92087848480799      7.12868353259942      5.98222391295707
  C           2.68065690721594      6.99136806748804      3.92497425338497
  O           2.10103747257038      7.98133381718496      4.39126191540819
  N           2.12218917486867      6.13795540870026      3.02658778451928
  H           2.69449205726566      5.33219018839010      2.76397397855074
  C           0.71380000080944      6.13580000210563      2.67659999587678
  H           0.29542684259179      7.13646103152501      2.89341928658288
  H           0.58484911399095      5.91360116260867      1.59929162526589
  C          10.88430001359602     -5.53920009040404      9.68700011056755
  N          10.92111691370790     -4.18271101558630     10.19093484726805
  H          11.82629453462047     -3.94442612529803     10.61844705772047
  C          10.63405905014221     -3.20142891083275      9.15522200299531
  H          10.89469210912683     -3.60653899713901      8.14400543250060
  C           9.13088874642239     -2.85344084743326      9.10875047743203
  H           8.55878695677455     -3.78153784918279      9.32306092025551
  H           8.86277107628495     -2.14881870384785      9.92329919447341
  C           8.58910708813769     -2.30697928203193      7.77821573418336
  O           7.40038221583850     -1.93601921693729      7.71331497999842
  O           9.43592478221110     -2.28220890622472      6.79237005723157
  C          11.54697322274195     -1.97657358503729      9.34419049483684
  O          12.36105003783407     -1.89672792530485     10.28339298360220
  N          11.40937926080129     -1.01857931973777      8.39811034043907
  C          12.20510000196205      0.18899998804058      8.40570001841381
  H          13.28155749712151     -0.02042951930080      8.21815602658973
  C          10.62419999812341     -5.45689998857377      1.91240000108088
  N          10.98855229009887     -4.06042881176151      2.15011936332706
  H          11.75409085762916     -4.00811539357455      2.83227644900307
  C           9.88828080730662     -3.20004200764678      2.58946093750604
  H           9.24544311452706     -3.68147487762127      3.36548088729407
  C          10.48398691511463     -1.89094404230852      3.17863817945740
  H          11.09159266007011     -2.17365055151388      4.06623718768351
  H          11.17945474206977     -1.46329267603261      2.42727575184052
  C           9.48969523458784     -0.84461974258170      3.56751560619144
  N           8.74445537576194     -0.91440820551292      4.72835949618798
  H           8.93232647855802     -1.58657378218268      5.58561243449403
  C           7.93793219288499      0.16730639153882      4.76863701108770
  H           7.25089903755457      0.37308753972385      5.59796696965131
  N           8.11364326146497      0.93809653181275      3.68628713237075
  C           9.08280036377718      0.31816354892809      2.92405556003719
  H           9.43969231648703      0.73922865559302      1.97814004777017
  C           8.94348218452278     -2.86100409374869      1.41818081632705
  O           7.72593375347101     -2.71590883455849      1.57739936660901
  N           9.59109681516908     -2.67659760499917      0.23370306773662
  H          10.58737595234731     -2.92665243579685      0.24447470014508
  C           8.93369999568852     -2.26659999524752     -0.98699999782532
  H           9.45952779531784     -1.40641757800424     -1.44992049129321
  H           6.30091199850288      5.99227221182552      0.93347757751204
  H           5.06906452548305      7.15114740271157      0.30169479972519
  H           4.74964628611707      5.37883892828634      0.28861018042450
  H           9.04370175762719      7.16336760836929     -5.46970530815928
  H           7.47308846752183      8.02489680977741     -5.60454069243440
  H           1.77793236769711      1.96340958322500      2.50736284807213
  H           2.99793005171535      3.12955762256766      1.94014372440714
  H           1.96361291610279      3.51997665307073      3.37404998385650
  H           0.14889118434370      5.38182232352224      3.26700078473056
  H          10.77537501378889     -1.24520473796968      7.60894458314262
  H          12.13375578753360      0.70328561889359      9.38609421898495
  H          11.83383722082676      0.87088991978800      7.61815545221414
  H          11.56927165053392     -5.72127969383959      8.81621716788459
  H          11.15262377565535     -6.25552979054215     10.49073077620862
  H           9.85824687381311     -5.80006189209416      9.34877141991703
  H           8.88547695320965     -3.09055078000951     -1.73198952644685
  H           7.90004144726790     -1.96190554112667     -0.73600483812048
  H          10.14553034384084     -5.94922665222716      2.79415071590066
  H           9.90760517105399     -5.52034843937936      1.06703694819823
  H          11.52725489100035     -6.03470846649647      1.63305215268178
  C          10.81075321047872      3.77177492384462      4.69963306225285
  C           9.79290304544986      4.26661565885589      3.96993671003450
  H          11.11939384524712      4.29056266775167      5.61721028353326
  H          11.33650674033977      2.85070380483171      4.40573040712884
  O           9.38034627216797      3.65585530848767      2.82118087672459
  H           9.23348313932209      5.17736471505939      4.23667058633541
  C           8.22539283315166      4.15981956885712      2.17217317741036
  O           7.89385257057377      5.34365789741022      2.30444160096579
  C           8.01536445170718      3.36019842777156      0.90281367471025
  H           7.09243634267654      3.68597895836224      0.39258265440420
  H           8.86837356709776      3.56614068938995      0.22896953277300
  H           7.98155170434030      2.27296578361828      1.08928258991766
