125
Coordinates from ORCA-job pes E -2799.520037204912
  C           5.53779997556049      6.14469999720086      0.14450000098093
  N           6.26218105354762      6.01344661188704     -1.11785117658081
  H           5.66735136797500      5.69512629565546     -1.89286834000664
  C           7.01230449493980      7.17013999849097     -1.56928488578954
  H           6.45344312763229      8.12811504664348     -1.36244829069280
  C           8.36809908260287      7.29769224642022     -0.81068132154723
  H           8.14509409055045      7.15903544729838      0.26873111388043
  C           9.39908470995210      6.25951624972781     -1.22192722926909
  H          10.23907156437213      6.23602085370177     -0.50159865114531
  H           8.92147597076346      5.26365869434403     -1.23854437470422
  H           9.80512898364241      6.47067611813465     -2.23135645338739
  O           8.94735851471106      8.60744580433960     -1.01787427138234
  H           8.39644348345930      9.25882109152018     -0.54403017281491
  C           7.17406550318354      7.10379991603359     -3.11364255980149
  O           6.50220564126406      6.31565332269192     -3.79677635639202
  N           8.07010125252348      7.97914255400466     -3.64827633060326
  H           8.62017257407694      8.52866189204020     -2.97227095053080
  C           8.43519999479341      7.99920001885826     -5.05870002481469
  H           8.86225009747894      8.98758271742800     -5.31091040617922
  C           2.52369999678217      2.70849999756458      2.85089999888324
  N           3.57917029581559      2.00720173792567      3.57015645933440
  H           3.19548721077484      1.57988932910512      4.41901784343636
  C           4.76521434322659      2.79850468489374      3.91802141430781
  H           5.29370806585015      2.24261656228221      4.71971133011291
  C           5.74314763929407      2.87938251668585      2.72863671163637
  H           5.76950645991143      1.86264745779080      2.27417084968709
  H           5.37023903635469      3.56914522738194      1.93693593679291
  O           7.03258927842603      3.28763304425236      3.13467911725389
  H           7.54151450953981      2.38219353875637      3.34925844019307
  C           4.34364674571526      4.14107315076773      4.56181935022515
  O           3.68576418632069      4.14892041597897      5.61146806200899
  N           4.59858998982130      5.29048003546591      3.85892257962981
  H           5.29391867377671      5.25365059735055      3.10931585683927
  C           4.16145189481111      6.60071310548281      4.32517645085201
  H           4.06569974116954      6.53414044312924      5.43072173098538
  C           5.16335917647802      7.70942470564503      3.95248832315944
  H           5.55269497726386      7.50413194289744      2.93098617542409
  H           4.59656204003370      8.66010915486377      3.88963595495504
  C           6.34147731333568      7.90465308995653      4.93251864013531
  H           6.99702069509683      8.66716074686792      4.45286859309388
  C           5.87237678774333      8.48555082532191      6.27403619719621
  H           5.21593710059312      7.77361964705051      6.81758000839621
  H           6.73698206341142      8.70043232371315      6.93514484618352
  H           5.30127413873958      9.42674718830677      6.13538376782174
  C           7.18297244349050      6.63704061224383      5.13305109492505
  H           6.61458385878129      5.85008588908458      5.67044005027638
  H           7.51585095422741      6.20867922749976      4.16732932240128
  H           8.08499909325789      6.85951742710102      5.73967674381263
  C           2.72140032869779      6.97059231214505      3.87947695402036
  O           2.18359430416479      7.99798583498591      4.31413826310924
  N           2.12125856203634      6.10055339015083      3.02518067826431
  H           2.66476919268419      5.26821833748758      2.78532257195257
  C           0.71380001395038      6.13579999812042      2.67660000270626
  H           0.31146408423808      7.12997156881628      2.94725850678332
  H           0.57617599009891      5.97293468985438      1.58915914786897
  C          10.88430000313700     -5.53920001483177      9.68700002212113
  N          10.92011402186162     -4.17898696964485     10.17907098167792
  H          11.82585745253019     -3.93677540024353     10.60396856405086
  C          10.63612556756374     -3.20331727939759      9.13735907606483
  H          10.90543021211842     -3.61218256520243      8.12913006159438
  C           9.13096912413958     -2.86017771416011      9.08383433140957
  H           8.56015093416898     -3.77800510055664      9.33785122349351
  H           8.86945862901048     -2.12655356611156      9.87559781838685
  C           8.57381981989197     -2.35090947268456      7.74327057728691
  O           7.34927436141608     -2.13763443890154      7.64329631230430
  O           9.44401928086739     -2.18014728756856      6.79400508142952
  C          11.55301117517982     -1.98057706166330      9.32924016933819
  O          12.38514004763169     -1.91843703907741     10.25506459659697
  N          11.39964481993506     -1.01064355719025      8.40078596830855
  C          12.20510000297569      0.18899999518226      8.40570001124959
  H          13.28008358117738     -0.03104638335841      8.22158211432818
  C          10.62420000033904     -5.45689999864900      1.91239999694427
  N          10.99013139010939     -4.06126200411809      2.15225906726233
  H          11.75335481405557     -4.01057991733695      2.83719858717461
  C           9.89073374784669     -3.19730031420900      2.58825425060495
  H           9.24896901063475     -3.67215987225142      3.36909813470199
  C          10.49115072153908     -1.88406395022121      3.16460926616264
  H          11.08432968950270     -2.15815530116059      4.06446467480448
  H          11.20154538304702     -1.47937901080317      2.41420489009051
  C           9.50713955308249     -0.81596899564181      3.52010477035861
  N           8.77241979353744     -0.82890399068717      4.68927045352021
  H           8.94161552177275     -1.48136833253537      5.55390648372099
  C           7.97636632863567      0.26483492412185      4.68752943873170
  H           7.29624274030016      0.50900526800918      5.51256619735063
  N           8.14737114777204      0.99012929248155      3.57509324192916
  C           9.10244717029890      0.32483821989529      2.83416079403796
  H           9.45422698086511      0.69923977407267      1.86628119000845
  C           8.94451797007249     -2.86796853130919      1.41589022910019
  O           7.72470533423429     -2.73911815628481      1.57086930807228
  N           9.59328591253649     -2.67240241405099      0.23358173911734
  H          10.59176593130763     -2.91274152379276      0.24494340514285
  C           8.93369999709897     -2.26659999596570     -0.98700000037738
  H           9.45885886353674     -1.40777744402782     -1.45308341359179
  H           6.24697145007543      6.15774318226726      0.99596894296443
  H           4.89473334023953      7.06158283089956      0.20057683178950
  H           4.88087925302524      5.26216962830845      0.27481101025222
  H           9.18213143412371      7.21247086367576     -5.30525853509530
  H           7.53652314705552      7.82167183977321     -5.68035706619548
  H           1.76559752300516      1.97767983003692      2.50345349964432
  H           2.93620334668217      3.19530547551650      1.94268576485201
  H           1.98733725631692      3.47553829775367      3.46036963190513
  H           0.14139757027617      5.35881564567058      3.22794231462299
  H          10.74137073722932     -1.22845799822378      7.62315578247356
  H          12.13805685498339      0.71072051872981      9.38299085883468
  H          11.84212424121536      0.87061603794227      7.61390317527096
  H          11.56955641758440     -5.72797552526842      8.81763468177505
  H          11.15380187454068     -6.24845245189314     10.49660741983668
  H           9.85862038883907     -5.80453147855742      9.35092670894123
  H           8.88360875044541     -3.09237682129528     -1.73004524086142
  H           7.90048780338994     -1.96112783584831     -0.73504897906808
  H          10.14083291567079     -5.94915092864710      2.79169229733073
  H           9.91100626318189     -5.51859453030162      1.06400389040808
  H          11.52742808909806     -6.03618910229764      1.63653529626409
  C          10.86730232078744      3.56949076336750      4.46831613775733
  C           9.98008231906370      4.19108872058694      3.67122831797107
  H          11.23520884385507      4.08057146935437      5.36824797148686
  H          11.22183011240153      2.55090750481317      4.24971150072781
  O           9.50720550847285      3.58163122770633      2.53909070077496
  H           9.57539176657584      5.19838247618361      3.85698161685216
  C           8.47607825812075      4.19671876308804      1.82609140449431
  O           8.21032968317246      5.38466919065954      1.96978076099511
  C           8.14091791626691      3.36028743224178      0.61539260319218
  H           7.30473220893412      3.81964466900564      0.05932440087897
  H           9.02990667782093      3.34790912051140     -0.04828778849791
  H           7.91099631477241      2.31440790189323      0.88343237587929
