125
Coordinates from ORCA-job pes E -2799.518692121766
  C           5.53779996456775      6.14469992345520      0.14450014801099
  N           6.23986035322009      5.96767843304365     -1.12970585658309
  H           5.60027285313297      5.75741016786598     -1.90644799509037
  C           7.11473403909881      7.04541777898106     -1.55244163604987
  H           6.70927174975105      8.05034076540004     -1.24155133253737
  C           8.51394193869924      6.91903753374371     -0.87847926609738
  H           8.32580305143701      6.75874173770503      0.20562871308267
  C           9.34227297545797      5.76248848743987     -1.41490432125242
  H          10.25010944592485      5.61263081544153     -0.79904532560080
  H           8.73738084271282      4.83641976249124     -1.38630882638486
  H           9.65612864597725      5.94644469664979     -2.46211447724109
  O           9.28097887574644      8.13416257935318     -1.04339658061589
  H           8.87621730000627      8.82262082540555     -0.48238098868645
  C           7.18241130122114      7.08725094123363     -3.10697175539400
  O           6.37422982137073      6.45206277371632     -3.80139715259443
  N           8.15579356349439      7.88425921425373     -3.63204541688009
  H           8.81430972416737      8.29192747625249     -2.95228174194119
  C           8.43520000267234      7.99920036771567     -5.05870049764535
  H           8.91897681471563      8.97332466548638     -5.25991200299816
  C           2.52369997336812      2.70850001124372      2.85090000801437
  N           3.48249914724924      2.15470507546397      3.80321139587503
  H           2.99118619978446      1.93674188910804      4.67780329089166
  C           4.60710302356923      3.04159241904852      4.12546870613002
  H           5.16424660578786      2.55668654982791      4.95587584347784
  C           5.59099249869920      3.11540336423121      2.93849552128618
  H           5.47154169503577      2.17306764748307      2.35835058856490
  H           5.36614385140882      3.96489971504065      2.26088768829622
  O           6.93122810123243      3.20991305424796      3.39366135807224
  H           7.72893975874778      1.86766502667868      3.49986187575594
  C           4.07901444080291      4.38761071362850      4.69956447346795
  O           3.17035009269649      4.35737605728669      5.54880854080576
  N           4.54798608382938      5.55366982145192      4.17310779960752
  H           5.48796974754359      5.55925702443272      3.68423607756717
  C           3.96444002337168      6.82056972610523      4.60576257719943
  H           3.89883409638760      6.83155900174412      5.71542675842703
  C           4.79487802141893      8.03004761323325      4.10860745661993
  H           5.38972512263913      7.70687491490211      3.22900508014324
  H           4.09674743855498      8.81359580215776      3.74875093515508
  C           5.72721465621287      8.66798793001025      5.16210062604281
  H           6.31294652849848      9.43979362387608      4.61175044214231
  C           4.93592281011992      9.39176141447640      6.26065561298461
  H           4.31537503057309      8.68249137785113      6.84796245160135
  H           5.61961420398673      9.90050848799128      6.97140719083983
  H           4.24926743953003     10.15266216103021      5.83532001324891
  C           6.72533623160554      7.66395956739864      5.74977732272025
  H           6.20483327615029      6.88201643297547      6.34328435530141
  H           7.29577885601386      7.14793718904520      4.95323771807793
  H           7.44188183185674      8.16682807723911      6.43126158844206
  C           2.48724348236085      6.97522834838231      4.17459519373577
  O           1.73609315692212      7.75769159052004      4.77297483570985
  N           2.10012107044456      6.25319726542268      3.08865550127556
  H           2.78555074500374      5.58414595616037      2.72884858282124
  C           0.71379997639032      6.13580000402951      2.67659998572280
  H           0.22858075274338      7.13035066546130      2.70963489559881
  H           0.66878855693756      5.74581716818157      1.64266329716587
  C          10.88430007015162     -5.53920033265340      9.68700033608728
  N          10.84206437194560     -4.17346335529648     10.16510820449331
  H          11.69912194875019     -3.90215651413188     10.66584971555855
  C          10.61210193678170     -3.20992531729222      9.09967645598237
  H          10.93416421952566     -3.62679556263894      8.11188513192138
  C           9.11188210833358     -2.86956682635318      8.96772185945854
  H           8.54234513856924     -3.82020351566405      9.05947359027573
  H           8.77602454148691     -2.23602523782557      9.81347378504784
  C           8.66224742916650     -2.22607932659520      7.65251350909374
  O           7.55806496828635     -1.65916799223132      7.57989939662537
  O           9.50691737904021     -2.33565110369493      6.65946742275547
  C          11.50118657813054     -1.97274571036018      9.33162587653194
  O          12.23300579532706     -1.86445737341821     10.33175862649207
  N          11.43556912882386     -1.03463574180737      8.35671578774004
  C          12.20510000617755      0.18900000442740      8.40570002041008
  H          13.29020763243407      0.00769700791116      8.23994634971150
  C          10.62419999764303     -5.45689999692371      1.91240000032683
  N          11.03151044706277     -4.06671147880878      2.11780485294106
  H          11.81639757507983     -4.02411149563215      2.77825533163902
  C           9.96360969660628     -3.17578123955535      2.57034268833671
  H           9.33544372110462     -3.62477847995120      3.37729906306940
  C          10.59648309398218     -1.86128375917094      3.10347132062155
  H          11.23323105297183     -2.12250379738010      3.97631977426520
  H          11.26413247543994     -1.45359170104653      2.31754138373948
  C           9.61553163589320     -0.80865494917591      3.50850563581881
  N           8.91845626817072     -0.87104449149305      4.70062320693968
  H           9.11467341642564     -1.60429774118318      5.58157360041779
  C           8.10401753289995      0.18804267030691      4.77526000831664
  H           7.44245062069957      0.41094244957643      5.61921816212434
  N           8.24351671519277      0.93506380322167      3.66418751307427
  C           9.18304203364267      0.33387876564830      2.85229024870750
  H           9.46968720816671      0.75244560796552      1.88326399123890
  C           8.99244392855017     -2.83497831127082      1.42188526825650
  O           7.78709947150726     -2.64245497279832      1.61924039722002
  N           9.61000541284306     -2.69159438463791      0.21737114480882
  H          10.59761575739665     -2.97451607122190      0.20307114959321
  C           8.93369999366635     -2.26659998381449     -0.98699999323367
  H           9.48191617739731     -1.43503837023641     -1.47523193146077
  H           6.23353612201999      6.11815230522827      1.00820939023897
  H           4.95309904007124      7.10004632991388      0.19987321960979
  H           4.82720416446652      5.30539234560768      0.27866138469139
  H           9.10427085778593      7.18611579821166     -5.41782294042229
  H           7.48775094635089      7.93808425054840     -5.62763026830278
  H           1.77064648307938      1.93597500865040      2.59495585785324
  H           3.03696073994755      2.98598913725597      1.90680176859223
  H           1.97258132702648      3.60180997934141      3.22814891150232
  H           0.14189280936026      5.45314145706927      3.34340113579437
  H          10.87388026808572     -1.27340724752462      7.52399138750218
  H          12.09660325408677      0.67802150333711      9.39471779534641
  H          11.83696699248387      0.88013474642608      7.62490018642804
  H          11.64235176322424     -5.71731954599066      8.87832673140464
  H          11.10728406264236     -6.23159306429664     10.52456175141871
  H           9.89631620309843     -5.83723260926184      9.27401999569667
  H           8.82827014306361     -3.09516409659692     -1.72060217734975
  H           7.92165357778561     -1.91570185832633     -0.70990266237055
  H          10.15779590022570     -5.92229902881869      2.81476104193720
  H           9.88351221768482     -5.51425020253890      1.08782433342368
  H          11.50403507265218     -6.06207462292676      1.61797490841482
  C           9.41272746673738      4.33449584336273      6.27504832331569
  C           8.53601891628041      4.49504753361368      5.25797756758548
  H           9.07897165249998      4.49934170988187      7.30859574167263
  H          10.45983282760323      4.04500346603126      6.09605948836467
  O           8.87026437527514      4.31526627395734      3.96161869704716
  H           7.48688354132764      4.78777253149062      5.43641775128294
  C           7.74828280697761      4.45857327500837      2.97441279128584
  O           7.06006475725698      5.53624458538037      3.05593381330584
  C           8.40920818817383      4.13478102932588      1.63229324058353
  H           7.63495878707187      4.08165918626603      0.84373703990242
  H           9.11425728762552      4.94803969595576      1.37780130293268
  H           8.97070054516820      3.18233634567509      1.66249956035204
