125
Coordinates from ORCA-job pes E -2799.517296244960
  C           5.53779997507711      6.14469997836473      0.14450001992263
  N           6.22151868361032      5.99441012267895     -1.14079437538620
  H           5.58072188412591      5.76697786651337     -1.91135464068941
  C           7.06691068074945      7.09523179165339     -1.56523461619024
  H           6.62334657255865      8.09019728027641     -1.27475438194198
  C           8.46220402566595      7.02970532620868     -0.87176265546072
  H           8.27251350132970      6.82348722827333      0.20372958648430
  C           9.36629330400818      5.93778915944891     -1.42270814152356
  H          10.22151431548838      5.75686382865735     -0.74330529313302
  H           8.78760054518648      5.00120418576881     -1.52227214774837
  H           9.76359187055277      6.20981725882199     -2.42096025649790
  O           9.16059743364532      8.28947781613887     -1.00598745082817
  H           8.70791028105827      8.94547878623091     -0.44298319254756
  C           7.16013081406026      7.10962272361628     -3.11678174918921
  O           6.39944407819423      6.42155261637018     -3.81450292042461
  N           8.10943967271927      7.93644774302522     -3.63882318870234
  H           8.73081346346491      8.39376555585724     -2.95635031132219
  C           8.43519999938496      7.99920003016166     -5.05870004263457
  H           8.94567266720097      8.95634618580032     -5.27315016950467
  C           2.52369999475866      2.70849999940652      2.85089999845417
  N           3.55439590486234      2.01947348562012      3.61741790651017
  H           3.14374065157582      1.61649983125434      4.46559543322743
  C           4.73433272187330      2.81258269671238      3.98111859187586
  H           5.24339477043905      2.26573332686722      4.80150894531341
  C           5.73557537334909      2.87421682545417      2.81097209156929
  H           5.74646961478907      1.86099167825066      2.34870717526571
  H           5.39611460300665      3.58109044595303      2.01973257358519
  O           7.02747736501757      3.24582650998819      3.24636147137274
  H           7.53651707720527      2.31498193628826      3.44379368005066
  C           4.30293362069161      4.16543406772543      4.59734402378549
  O           3.60784418051561      4.18642851537119      5.62262467156598
  N           4.59321516030997      5.30770158013762      3.89715674807401
  H           5.31565158438605      5.26486246832943      3.17302824051183
  C           4.14916588724231      6.62310730255614      4.34360195962892
  H           4.05003115870596      6.57515450031597      5.44983911888955
  C           5.15117320611771      7.72719013757304      3.95621094435007
  H           5.56601954995319      7.49012223920843      2.95198181726920
  H           4.58256350094489      8.67266550112595      3.84834100859686
  C           6.30287532451882      7.95959847343747      4.95960182559720
  H           6.98021513672141      8.69263441880109      4.46475203536443
  C           5.79940650817069      8.60618432767824      6.25791056628916
  H           5.11259193457990      7.92914933337562      6.80856217455583
  H           6.64489361798351      8.83665222694079      6.93823157463050
  H           5.24881443892957      9.54872648316153      6.05889601768309
  C           7.12299211981212      6.69414062019112      5.24398125118828
  H           6.52844411332211      5.94021926171894      5.80058371825204
  H           7.47688416638066      6.21803200092225      4.30855354673354
  H           8.00934754962908      6.93458893532765      5.86654418445796
  C           2.70918262637670      6.98146213692155      3.89026502321186
  O           2.16121802440242      8.00307317467130      4.32575047342229
  N           2.12117585722536      6.11169409330377      3.02731406209093
  H           2.67138523973104      5.28341767944117      2.78881663499567
  C           0.71380001448410      6.13579999880624      2.67660000270393
  H           0.31013542726241      7.13766847393085      2.91487188016650
  H           0.57925107318410      5.93848708125533      1.59474795920864
  C          10.88430000025660     -5.53920001084762      9.68700002002944
  N          10.92480863179749     -4.18182526405360     10.18749759307187
  H          11.83261314203329     -3.94359513405376     10.60984217068374
  C          10.63627950186912     -3.20171773077281      9.15114962018848
  H          10.89773031856084     -3.60763580975451      8.14006917811014
  C           9.13217520161622     -2.85526269122335      9.10597852460500
  H           8.56044804329478     -3.77605777106073      9.34853232499598
  H           8.87131184591103     -2.13094548223131      9.90605683712560
  C           8.57806825790049     -2.33391844619855      7.76949541902024
  O           7.36648400228958     -2.05028217325581      7.68766126051174
  O           9.43872439246913     -2.23183359442951      6.80157990522480
  C          11.55244781354594     -1.97858826738802      9.33930881570994
  O          12.37908190214565     -1.90870387388172     10.26891580727400
  N          11.40355850727695     -1.01403721263974      8.40303640104545
  C          12.20510000374590      0.18899999471399      8.40570001329188
  H          13.27915594875015     -0.02569546846278      8.21003200637188
  C          10.62419999995938     -5.45689999693933      1.91239999718403
  N          10.99003329065910     -4.06089968293456      2.14991015189054
  H          11.75536116496463     -4.00939784363381      2.83241278772039
  C           9.89117038278470     -3.19830986907506      2.58900539847806
  H           9.24879487574581     -3.67674163194152      3.36721838834863
  C          10.49118610129158     -1.88874016277754      3.17355852548289
  H          11.09243445328899     -2.16993495926266      4.06596352437219
  H          11.19385193074570     -1.47197257846318      2.42260110940888
  C           9.50426539992285     -0.83059361959917      3.54916456427034
  N           8.76354108367251     -0.87324420580892      4.71385593234938
  H           8.93944363541506     -1.53669515185385      5.57331483798918
  C           7.96561442088071      0.21756098632462      4.73565753402193
  H           7.28193728492590      0.44150053511119      5.56336089762313
  N           8.14154508083478      0.96893731561254      3.64084311450156
  C           9.10201010208081      0.32481814557130      2.88790184213865
  H           9.45844252668645      0.72405975477695      1.93199560759670
  C           8.94501125345498     -2.86167714121208      1.41832087036685
  O           7.72711112369634     -2.72014310123229      1.57779067095409
  N           9.59172164191662     -2.67659311066968      0.23324921860959
  H          10.58928712666873     -2.92115377865131      0.24455590129688
  C           8.93369999697043     -2.26659999618626     -0.98700000125815
  H           9.43277255595970     -1.37971386191585     -1.42942835400277
  H           6.26851030282162      6.11596256361879      0.97671917132074
  H           4.94027037518561      7.09010532202834      0.22619329811730
  H           4.84309321992849      5.29269297858847      0.28357278324409
  H           9.09764202459005      7.16120256277305     -5.36945243941890
  H           7.50659866285473      7.93965674480950     -5.65846923783581
  H           1.77498726612642      1.97236239362733      2.49458266489915
  H           2.96554539851189      3.17702604786173      1.94697373577326
  H           1.97078151588617      3.48840506986764      3.42798140972153
  H           0.13977307133941      5.37689283759906      3.25126821319987
  H          10.75537576215611     -1.23721382503975      7.62129364379015
  H          12.14448906709002      0.70411341451421      9.38659814123765
  H          11.83167349786328      0.87323514537054      7.62111943583018
  H          11.56536763150715     -5.72388712126193      8.81359616213391
  H          11.15558331966181     -6.25404926238233     10.49107737662861
  H           9.85658966598421     -5.80000480742484      9.35372819895185
  H           8.92289792507794     -3.07818212287369     -1.74659542968951
  H           7.88772759338767     -2.00251558557846     -0.74106202033787
  H          10.14441990095265     -5.94868113262167      2.79389352982539
  H           9.90802420221227     -5.51984149430139      1.06663418974042
  H          11.52677330152352     -6.03585503352232      1.63373150521142
  C          10.89205249886320      3.67371270537363      4.50759101910904
  C           9.92171545068977      4.23264140288112      3.76132287825793
  H          11.25702114226715      4.19950345752277      5.40018475636103
  H          11.32103871509658      2.69263196553788      4.25364586699888
  O           9.44614703471439      3.60880381875609      2.64110912402112
  H           9.45017986549004      5.20234771569697      3.98630811617970
  C           8.34363371715125      4.17221905099765      1.97670465766107
  O           8.05474535309322      5.36024503389594      2.11414492377237
  C           8.03552894602646      3.34101327759424      0.75267957940747
  H           7.10784730241352      3.70273411351334      0.27657068531464
  H           8.86383730813245      3.47605060978910      0.02977616829771
  H           7.95580045854248      2.26561836609160      0.98748500369963
