125
Coordinates from ORCA-job pes E -2799.521389514668
  C           5.53779997292747      6.14470000259758      0.14449998797003
  N           6.27294956719129      6.01319621033681     -1.11162447584848
  H           5.68896062522634      5.67513644479693     -1.88656027760665
  C           7.00461090232977      7.17891454029318     -1.57047789948485
  H           6.42770931846091      8.12848336683656     -1.37539605423998
  C           8.35375533134538      7.33683108761359     -0.80604570997203
  H           8.12724652927288      7.19988981849422      0.27276952041878
  C           9.40697262701966      6.31638780611561     -1.20577065341153
  H          10.23904341787944      6.30679875216991     -0.47607030777891
  H           8.94744779366605      5.31224806365523     -1.22887150028859
  H           9.82075804763776      6.53542854035625     -2.21033605286711
  O           8.90911087119382      8.65602853241232     -1.01801331656945
  H           8.34275363447284      9.29982283531000     -0.55204398992343
  C           7.17653518947624      7.10111867827318     -3.11312026910397
  O           6.52326114017036      6.29449436120489     -3.79265990489444
  N           8.06051690505507      7.98690577706569     -3.65061887611560
  H           8.59605503274943      8.55317524401657     -2.97688150439181
  C           8.43519999776270      7.99919997712625     -5.05869996831839
  H           8.85212919014891      8.99045728786041     -5.31635480660492
  C           2.52370000381902      2.70849999663955      2.85089999996497
  N           3.57792586225363      2.00338627505220      3.56804140149479
  H           3.19389042847082      1.57540786439676      4.41640559213038
  C           4.76480798103916      2.79313584624611      3.91573773861742
  H           5.29450598932640      2.23711702203409      4.71659929107713
  C           5.74059296749416      2.87510817090256      2.72462970895605
  H           5.77723584639052      1.85511731810115      2.27812250989904
  H           5.35610354070027      3.55295140203789      1.92788162377335
  O           7.02547627457904      3.30337245909186      3.12159464575346
  H           7.54355879693260      2.41167765994991      3.34084409460042
  C           4.34315701010809      4.13581148472057      4.55955079327514
  O           3.68405782824791      4.14464894140352      5.60844091560817
  N           4.59880703222648      5.28448274609333      3.85560340721243
  H           5.29785217022475      5.24607856557491      3.10948590493388
  C           4.16425080124361      6.59594872123482      4.32109743185315
  H           4.06630821902449      6.52960404616439      5.42651982540656
  C           5.17020187456302      7.70168498894626      3.95075103349223
  H           5.56008228153415      7.49624601965111      2.92948625546503
  H           4.60654046939540      8.65425267126592      3.88814730212315
  C           6.34814182458891      7.89235246686933      4.93199800937505
  H           7.00570583953853      8.65421870589396      4.45410607692966
  C           5.87944170659942      8.47204820923007      6.27417843383557
  H           5.22131510098754      7.76055675209461      6.81623006445363
  H           6.74406678000808      8.68421254476291      6.93612595845287
  H           5.31022907671179      9.41455712757174      6.13667056006746
  C           7.18696712907013      6.62272300329399      5.13120823628099
  H           6.61656848636932      5.83601162372494      5.66673438227656
  H           7.52078441116325      6.19510386244248      4.16553603616676
  H           8.08873575746100      6.84259582499718      5.73917698261913
  C           2.72586607772799      6.96996864859797      3.87290134369152
  O           2.19255870291923      8.00213698818740      4.30186237803988
  N           2.12167554268499      6.09772004642025      3.02366888357490
  H           2.66198948688758      5.26178817202599      2.78901507927968
  C           0.71380001567159      6.13579999786712      2.67660000350962
  H           0.31556773472164      7.13349619863041      2.94027639426312
  H           0.57420418893046      5.96525887988014      1.59059921599596
  C          10.88429999375663     -5.53919996895620      9.68699997755748
  N          10.91843525199143     -4.17843107851903     10.17762824763082
  H          11.82344678919904     -3.93530036794862     10.60366169668381
  C          10.63605995132790     -3.20358126741083      9.13465630928514
  H          10.90767344732671     -3.61305715877285      8.12721559406597
  C           9.13086296304082     -2.86060754312955      9.07845649156032
  H           8.55954460893538     -3.77715693360520      9.33559496606585
  H           8.86935154608883     -2.12412477283765      9.86766965886348
  C           8.57405620384001     -2.35442291551952      7.73639776273022
  O           7.34764763581787     -2.15502944817732      7.63155674662014
  O           9.44651946323195     -2.17068810243212      6.79159182701726
  C          11.55297149975603     -1.98084707090026      9.32779045566167
  O          12.38537811871662     -1.92009412852555     10.25357913991160
  N          11.39924773607553     -1.01019108172883      8.40047076506317
  C          12.20510000244388      0.18899999297340      8.40570001100089
  H          13.27970565926517     -0.03093445624341      8.21899959093945
  C          10.62420000007743     -5.45690000143731      1.91239999553638
  N          10.99038980085882     -4.06117611205893      2.15286224640839
  H          11.75302013832196     -4.01104123764249      2.83851377746256
  C           9.89167627782709     -3.19542517257411      2.58797401335866
  H           9.25021483051589     -3.66787962730544      3.37050895777681
  C          10.49350165793514     -1.88072558634958      3.16007057593842
  H          11.08677320813126     -2.15282846940312      4.06051764541639
  H          11.20424033757038     -1.47969670252075      2.40804022035039
  C           9.51186685030025     -0.80931276577900      3.51341972136800
  N           8.77915143632806     -0.81738200744686      4.68392822555704
  H           8.94588713368401     -1.47010885746002      5.54751278078509
  C           7.98701387274724      0.27971532593346      4.68121839508342
  H           7.30884807896369      0.52734606386758      5.50688561102124
  N           8.15833708082341      1.00284872694088      3.56761767190760
  C           9.10957721417615      0.33216517977367      2.82654278801202
  H           9.46075173744552      0.70348973205191      1.85710881805444
  C           8.94509501642022     -2.86782854830450      1.41566197947759
  O           7.72501707882688     -2.74097693863712      1.56997908131707
  N           9.59387161777904     -2.67157263635484      0.23342823677679
  H          10.59232053726205     -2.91191079767713      0.24416118499015
  C           8.93369999817842     -2.26659999933048     -0.98699999952762
  H           9.46619042025868     -1.41612281465010     -1.45979927121927
  H           6.24088250612450      6.18264175522955      1.00043751851653
  H           4.87739377607545      7.04981285155094      0.18618635420630
  H           4.89751498772062      5.25132462539827      0.28261082152964
  H           9.19327965891927      7.21947100452122     -5.29313317313424
  H           7.54338650636304      7.80556196643307     -5.68545475622758
  H           1.76495033010268      1.98009259749221      2.49969936071838
  H           2.93721989558644      3.19888624450774      1.94517329946664
  H           1.98736107026953      3.47332171774119      3.46324273566109
  H           0.13907526971114      5.36519070801841      3.23445246789561
  H          10.73977129109658     -1.22802575618395      7.62308935619195
  H          12.14031703826532      0.70929218370534      9.38391475218779
  H          11.84089702806196      0.87204468526226      7.61557734708361
  H          11.57109331904788     -5.72842828701760      8.81892820359547
  H          11.15303606673823     -6.24738896441704     10.49779409521122
  H           9.85935046622279     -5.80564167033097      9.34955691460190
  H           8.87190646487210     -3.09606962134160     -1.72516747893969
  H           7.90453637291079     -1.94908395420760     -0.73331872527526
  H          10.13965111146637     -5.94922311935248      2.79100401204182
  H           9.91203939763060     -5.51830650800058      1.06310903097826
  H          11.52767216793830     -6.03628532832128      1.63757179907125
  C          10.86653454257060      3.54747248479754      4.47476771848730
  C          10.00872298174146      4.19221119538600      3.66450559283939
  H          11.24065800969492      4.05228119534610      5.37567263394043
  H          11.19011572791053      2.51650722878621      4.26638419438738
  O           9.53004958809752      3.58953072637259      2.52991014831143
  H           9.63363831021782      5.21280390320973      3.83917949526533
  C           8.52643663399330      4.22523924396684      1.80353594421644
  O           8.26551358299391      5.41149590686500      1.95890301959229
  C           8.17264253584544      3.39242594913384      0.59740102351255
  H           7.34434367276794      3.86827153666818      0.04315597454418
  H           9.05914784787914      3.35320391621237     -0.06881190548990
  H           7.91849978360845      2.35435940274005      0.87398597342485
