125
Coordinates from ORCA-job pes E -2799.514665701811
  C           5.53779999823672      6.14469981604322      0.14450027936273
  N           6.22169660143676      5.97192773348159     -1.13982881806168
  H           5.56724334084316      5.80340406999240     -1.91443760819841
  C           7.13101511356626      7.02614139006500     -1.54865981050122
  H           6.76225849818844      8.03927704671468     -1.21852989006226
  C           8.52714184126413      6.83930780951799     -0.88343826462034
  H           8.33958608875433      6.67944585070794      0.20104726298108
  C           9.30244658896040      5.65065341677763     -1.42835742877911
  H          10.19652455107823      5.44958641055942     -0.80704556266352
  H           8.65021162888565      4.75626457470239     -1.41401126394571
  H           9.63087925618244      5.82884328874306     -2.47223804017145
  O           9.34302963650534      8.02212663088922     -1.04569569751966
  H           8.96915090835207      8.72390681925760     -0.47974677652800
  C           7.18540211859226      7.09322214702554     -3.10342173683592
  O           6.33979426231306      6.50944124262272     -3.79860240892774
  N           8.18567212202009      7.85560317910718     -3.62854444918216
  H           8.87107421072723      8.22286680638250     -2.95254169565104
  C           8.43520003168441      7.99920033200667     -5.05870049015090
  H           8.98284248427294      8.94267190045673     -5.24054101549197
  C           2.52369996274129      2.70850002341586      2.85089999808849
  N           3.58851616255643      2.18595439304181      3.70815497829954
  H           3.18412409477358      1.94514324836830      4.62103752637746
  C           4.69039278687527      3.13169933055577      3.94173510920877
  H           5.36382392923645      2.66557986149528      4.69314713919244
  C           5.50169469471651      3.29541755100336      2.63285534460193
  H           5.23256272324258      2.44002255648922      1.98296209918904
  H           5.25632184121205      4.23214467133599      2.10119069715826
  O           6.92157553918835      3.20675551600616      2.77397801551245
  H           7.60189741271660      1.78468123857818      3.23715119089944
  C           4.13204871877624      4.42939825555726      4.60191846077154
  O           3.25470817439076      4.33021605856280      5.47714636983238
  N           4.55691119050648      5.62553308256565      4.11113404221297
  H           5.49968290494972      5.63588936615890      3.61828706106210
  C           3.96017709139418      6.86600979529803      4.59121518499492
  H           3.89472265964070      6.83878997753558      5.70093943622466
  C           4.77779499379211      8.09919835544687      4.13628166806910
  H           5.33803492804255      7.82432008505429      3.21765511840436
  H           4.07051368882145      8.90297421695957      3.84608343482232
  C           5.74963536548614      8.67602207209828      5.19004475007123
  H           6.33583412898792      9.45890692393968      4.65608145879963
  C           4.99656068301095      9.36903539763478      6.33454050774416
  H           4.37300762970118      8.64772840873536      6.90382952738619
  H           5.70501730856517      9.83198920642577      7.05231052396068
  H           4.31876723307438     10.16220866591483      5.95657753194167
  C           6.74206933677519      7.63433731989852      5.71994253913239
  H           6.22224910997309      6.85541489599368      6.31688930549747
  H           7.27573227436248      7.11748546649590      4.89784054203444
  H           7.49142857995731      8.10652372454083      6.38797693738933
  C           2.48075318593762      7.01191054322807      4.16267453638242
  O           1.72410292431031      7.78721438845030      4.76344646741376
  N           2.09814746688008      6.27972150402063      3.08227058835113
  H           2.79414900114821      5.62322783313406      2.71973640921218
  C           0.71379995997738      6.13580000886798      2.67659997955855
  H           0.20524923197417      7.11766702307127      2.73055717493255
  H           0.67072338499042      5.76305106816066      1.63616736999979
  C          10.88430002669470     -5.53920022396917      9.68700021793807
  N          10.82914417917762     -4.16747242324729     10.14580888428790
  H          11.68393240265689     -3.88448902123302     10.64505177172838
  C          10.59947948208972     -3.20971721503921      9.07398243421274
  H          10.92233888658274     -3.63172926458573      8.08796147403184
  C           9.09810170802721     -2.86915256933914      8.94726659797479
  H           8.52682459641408     -3.81470566787121      9.06946272175161
  H           8.77507106721971     -2.22158038649353      9.78833502604975
  C           8.61081864235249     -2.24300155376994      7.63523932151003
  O           7.44189909403007     -1.83230336138226      7.54482554572389
  O           9.49055794051238     -2.19318289673530      6.66718730042711
  C          11.50055055334608     -1.97839970206861      9.30647011257946
  O          12.26026157524863     -1.89754501348708     10.28943868480739
  N          11.41650195234040     -1.02144245488551      8.35467396522673
  C          12.20510001318240      0.18900003063618      8.40570001817063
  H          13.28885039908497     -0.01302934420236      8.25655952691935
  C          10.62420000212086     -5.45690001296519      1.91240000462027
  N          11.00914145099842     -4.06525816296780      2.14145525838283
  H          11.77771895524978     -4.01948557166490      2.82070010868873
  C           9.91779092467797     -3.19660613590884      2.57958112417928
  H           9.28170209471626     -3.66116570208006      3.37135406132931
  C          10.52164048346282     -1.87717951277739      3.13258041632719
  H          11.11237525166087     -2.12616147453324      4.03982526127172
  H          11.22781040473173     -1.47989999865232      2.37527636677490
  C           9.52114234269470     -0.82016813784978      3.47001721626439
  N           8.83103663795407     -0.80518558565450      4.66870923201076
  H           9.04941108792633     -1.48934922237848      5.58199707483043
  C           7.98767502699845      0.23400375962979      4.66528392852995
  H           7.33044661309223      0.52459390447156      5.49149302556542
  N           8.10358491042796      0.88803530308099      3.49417954462510
  C           9.05620639520580      0.25266627247333      2.72649521237954
  H           9.32269489743675      0.60181585231589      1.72483011054970
  C           8.96188150605314     -2.86906399665277      1.41426753752332
  O           7.74625821508036     -2.72244908592850      1.58568555769193
  N           9.60066656003541     -2.68149058550214      0.22680788624694
  H          10.59521626120318     -2.93869309018907      0.22575809184194
  C           8.93369998999931     -2.26659997655564     -0.98699999989451
  H           9.49161454698652     -1.44429333441886     -1.47903991137984
  H           6.23783791620655      6.06801026319456      1.00118262666206
  H           4.99757725505815      7.12403963867432      0.23023400784301
  H           4.78868825387300      5.33719753081337      0.25710187478277
  H           9.03413519164994      7.15350620598204     -5.46312100194969
  H           7.47172967601447      8.02559259230276     -5.60312694842245
  H           1.77742591141927      1.90980583922782      2.66603514352188
  H           2.93390293946011      3.00280247006652      1.86258550121948
  H           1.98169241818289      3.58233890600262      3.28251630070391
  H           0.16285748599310      5.42762852006631      3.33443105790311
  H          10.81899600555101     -1.23910635299481      7.53687382314555
  H          12.09370080535732      0.69135005585030      9.38831353936126
  H          11.86042158512738      0.87917253400978      7.61357033886875
  H          11.64589799262306     -5.72207800060280      8.88246758676548
  H          11.11286221795733     -6.21663188361412     10.53515512775461
  H           9.90001423983002     -5.85350263230268      9.27693678476821
  H           8.82765570936678     -3.10213519034237     -1.71295564678806
  H           7.92152016081849     -1.90736568074780     -0.72137811825252
  H          10.14416992125773     -5.93840801417144      2.79910181358946
  H           9.90200616864732     -5.51428325864381      1.07152659006384
  H          11.51726564709699     -6.04850449138780      1.63029582193183
  C           7.98798106898705      3.43976172731052      6.64114778997656
  C           7.70634816251602      4.05690433868330      5.46516188161593
  H           7.33940377637375      3.60886145067933      7.51222590346265
  H           8.87116394992209      2.79256049863156      6.75918137838246
  O           8.45393431345639      3.95834537489143      4.36209120196220
  H           6.81954396231225      4.71358320056787      5.37531994281580
  C           7.69618888015712      4.35323518169807      2.98742250870413
  O           7.04548940048505      5.46160685347933      3.06164588926459
  C           8.88564391094065      4.30486003077619      2.02054254695337
  H           8.49643754770475      4.37303105343464      0.98782616518980
  H           9.55423758477765      5.16336115570564      2.21732719175922
  H           9.46454518579189      3.36695275296996      2.12491815531932
