125
Coordinates from ORCA-job pes E -2799.517004652121
  C           5.53779999343436      6.14469980818719      0.14450030078206
  N           6.24009774224137      5.97183108887046     -1.13004013471325
  H           5.60184386513491      5.75877914216427     -1.90709027318310
  C           7.10874930742851      7.05445070381182     -1.55271765389599
  H           6.69354828077887      8.05756996068816     -1.24834156356711
  C           8.50587547598512      6.94337227472498     -0.87159710370904
  H           8.31479277949389      6.78871881903926      0.21285503909390
  C           9.34580019625613      5.79011425931328     -1.39669732158826
  H          10.25020153746818      5.64961433748487     -0.77374105215633
  H           8.74602259001466      4.86088340468022     -1.36624409562867
  H           9.66502066815711      5.96979284630509     -2.44301300857205
  O           9.26335705573207      8.16398785809486     -1.04114226442866
  H           8.85047547853056      8.85231428142685     -0.48591445824199
  C           7.18224774899617      7.08952136055492     -3.10704542565120
  O           6.37980173335619      6.44721670649913     -3.80167536044009
  N           8.15298226945765      7.88940149034399     -3.63239849047530
  H           8.80649003382066      8.30471487203003     -2.95238291473696
  C           8.43520002693155      7.99920043664808     -5.05870061985657
  H           8.91338164664088      8.97528175566167     -5.26386048038021
  C           2.52369995739000      2.70850002676180      2.85089999852062
  N           3.49719847387980      2.15237372285969      3.78758227132659
  H           3.01716808832906      1.92643959415519      4.66639204793244
  C           4.61929779912145      3.04462262699333      4.10397874683104
  H           5.18715491824573      2.55898471752604      4.92671571406535
  C           5.58635499300090      3.12477384746474      2.90550255094339
  H           5.48177632478157      2.17466178100826      2.33822954114562
  H           5.35396772066668      3.96659152423597      2.22349885700191
  O           6.93732666924249      3.23520012406806      3.34661712942467
  H           7.77187658466945      1.86610278300089      3.50694908111113
  C           4.08912289945235      4.38678650009605      4.68593357069969
  O           3.18603226831948      4.34794906363419      5.54132775751167
  N           4.55329280819663      5.55216463632614      4.15772428135660
  H           5.50275284915227      5.55406890335731      3.67057272318874
  C           3.97113306172121      6.81737377205525      4.59614639534561
  H           3.90711579509536      6.82551404538891      5.70602664430045
  C           4.80330724077258      8.02685173641617      4.10143008443886
  H           5.39381803390821      7.70426112499884      3.21877108872116
  H           4.10724328414568      8.81526912528938      3.74841396866777
  C           5.74416207122449      8.65415066775108      5.15404178051658
  H           6.33325174199764      9.42414373679619      4.60470730744927
  C           4.96192474526056      9.37852350679941      6.25864577144335
  H           4.33864583596656      8.67087819412495      6.84504894320727
  H           5.65165617221082      9.87928063950339      6.96931369454703
  H           4.27919017985587     10.14628883093960      5.83927548807436
  C           6.73755477518783      7.64067785466372      5.73384191353811
  H           6.21398137072732      6.86325302685762      6.33054840391809
  H           7.29741908501549      7.11889838047538      4.93332625699139
  H           7.46317995212684      8.13657807639901      6.41082488327616
  C           2.49335105532505      6.97532907693497      4.16808799386134
  O           1.74487814490111      7.75985227374613      4.76728285432185
  N           2.10150109167043      6.25162331348604      3.08481869287895
  H           2.78556352722994      5.58163217372484      2.72412112413153
  C           0.71379995453800      6.13580001041926      2.67659997721435
  H           0.23102212522671      7.13167714191221      2.70611474959984
  H           0.66565445883768      5.74126919321753      1.64452957534677
  C          10.88430005292206     -5.53920033627929      9.68700032891558
  N          10.83770807057223     -4.17319965104452     10.16404032203850
  H          11.69133339729341     -3.89992210180247     10.66944219647938
  C          10.61034022982119     -3.21036420033544      9.09755062558418
  H          10.93520706469491     -3.62754255424473      8.11093549899928
  C           9.10990591885567     -2.87147552315812      8.96146901474744
  H           8.54285768079876     -3.82486579878138      9.04014966959385
  H           8.76855614066967     -2.24659930357573      9.81122852296506
  C           8.66793075122558     -2.21731311289727      7.64978014513106
  O           7.57922750888813     -1.62166524783958      7.58106058287696
  O           9.50483427970305     -2.35033437477738      6.65165618603702
  C          11.49656692646800     -1.97162012836274      9.33184572036246
  O          12.21976006060371     -1.85860167632268     10.33748512989594
  N          11.43908793319058     -1.03699531111319      8.35282450650700
  C          12.20510000973845      0.18900003633525      8.40570001475813
  H          13.29301870507936      0.00842964060594      8.25973731374586
  C          10.62420000125259     -5.45690000877661      1.91240000746549
  N          11.03699382889141     -4.06766368291046      2.11248228048537
  H          11.82547146535505     -4.02619061559181      2.76871060855593
  C           9.97409777580470     -3.17273950546362      2.56878297189705
  H           9.34618361492848     -3.62030694052025      3.37677855275170
  C          10.61380846890556     -1.86219022122412      3.10282106406454
  H          11.25147891540145     -2.12815951095606      3.97358255365996
  H          11.28139807329977     -1.45524666280386      2.31645799387238
  C           9.63785306961357     -0.80692155259045      3.51263302958277
  N           8.93893822640762     -0.87173213707599      4.70376280063024
  H           9.12869651499773     -1.61593420154055      5.58924034020075
  C           8.12998443694874      0.19034683064726      4.78266743273561
  H           7.46885973069609      0.41316221516732      5.62698859244744
  N           8.27527795655006      0.94103518432536      3.67409221409805
  C           9.21325767928636      0.34019140589759      2.85997191746810
  H           9.50268927416144      0.76281581224758      1.89364279524598
  C           9.00060535205297     -2.82667952712650      1.42374897008617
  O           7.79779788677182     -2.62399781798395      1.62680120348599
  N           9.61311169738759     -2.69157675393995      0.21580344050665
  H          10.59874205535449     -2.98124014241499      0.19784595070887
  C           8.93369998843005     -2.26659997581579     -0.98700000010633
  H           9.48470429968924     -1.44017010861162     -1.48072927354679
  H           6.23271647123832      6.11215294589162      1.00892269850729
  H           4.95484731551870      7.10097873386001      0.20359379732757
  H           4.82426905143676      5.30676993426796      0.27326320133457
  H           9.11025546462435      7.18861177411815     -5.41228664237075
  H           7.48956006463645      7.92920827095582     -5.62962438488021
  H           1.77143965180373      1.93381246399458      2.59947615019621
  H           3.02348886796893      2.99438206057151      1.90208365639950
  H           1.97380511565414      3.59645929313887      3.24178333674108
  H           0.14175186565929      5.45766066323630      3.34788678361310
  H          10.88407964849953     -1.27609210369070      7.51674175374190
  H          12.07869882012106      0.68544786514987      9.38892088794268
  H          11.84830621424419      0.87332274374169      7.61378626407042
  H          11.64591942122526     -5.71664332503073      8.88158270881428
  H          11.10511820761069     -6.23050565785085     10.52600761652905
  H           9.89847860152981     -5.83924574068503      9.27033615579522
  H           8.81989267575342     -3.09723452509982     -1.71696116053149
  H           7.92512723657911     -1.90856747291685     -0.70641481188129
  H          10.16116108908290     -5.91870941984836      2.81833262505279
  H           9.87885918241503     -5.51382048967369      1.09199457799518
  H          11.50032746849011     -6.06578212674358      1.61459187792558
  C           9.35234355946269      4.23559855935335      6.30079132792010
  C           8.49990091074445      4.43075713842163      5.26739193202351
  H           9.00061871606368      4.39056682193103      7.33004658384354
  H          10.39824152952769      3.93173289416627      6.13863805455165
  O           8.85157360702000      4.27682880705026      3.97614195847755
  H           7.45229280126645      4.73912004206507      5.43604014886024
  C           7.70217582598631      4.40755915529933      2.96835777495668
  O           7.03350101120036      5.51043348992313      3.04952982452186
  C           8.41406478791799      4.13827214337919      1.63476564774210
  H           7.66206615381865      4.08335331253695      0.82432825639506
  H           9.10428142870341      4.97389580800093      1.41852796309661
  H           8.99737329051512      3.19786059197686      1.65638860974646
