125
Coordinates from ORCA-job pes E -2799.515762422327
  C           5.53779996775808      6.14469994160354      0.14450007493135
  N           6.21590535673539      5.99647801685162     -1.14369877923460
  H           5.57162616611190      5.77571121294567     -1.91320372969429
  C           7.06702521583610      7.09347564615829     -1.56538428593740
  H           6.62855436100778      8.09022203851217     -1.27281988178945
  C           8.46125863300554      7.01970906023141     -0.87037402673278
  H           8.26773442697570      6.81322388429613      0.20454045785167
  C           9.36103122993670      5.92404620447991     -1.42108730374856
  H          10.21364921844622      5.73873328730077     -0.73944578846278
  H           8.77846311506869      4.99013101604922     -1.52320174552696
  H           9.76193922645894      6.19563710070359     -2.41801255612333
  O           9.16582055281721      8.27614004588515     -1.00222925614833
  H           8.71625062539192      8.93361433531277     -0.43847206340866
  C           7.15942823838528      7.11109248389039     -3.11687543697715
  O           6.39328200123497      6.43038767037946     -3.81593308846993
  N           8.11361065294725      7.93285104669235     -3.63800016103478
  H           8.73860103805399      8.38509696512781     -2.95542387647834
  C           8.43520000653761      7.99920013235780     -5.05870018152394
  H           8.94766748144611      8.95553372128728     -5.27219183379292
  C           2.52369998870635      2.70850000522835      2.85089999929114
  N           3.56120520307635      2.02268014786940      3.61150691622884
  H           3.15727425313433      1.62066393442159      4.46331708656359
  C           4.74281204610014      2.81740154808193      3.96594745744788
  H           5.25727391001882      2.27190600495672      4.78387513135519
  C           5.73645147425927      2.87736267631679      2.78977577712321
  H           5.73683624291211      1.86792848437928      2.31929608465844
  H           5.40207044129335      3.59280475433888      2.00492387301149
  O           7.03496827965260      3.23375130738974      3.22288920679884
  H           7.54043877524522      2.29033809849268      3.42906227471894
  C           4.31366385896223      4.17042133864705      4.58369667604351
  O           3.62404960166719      4.19007497485746      5.61262517427154
  N           4.59905716005443      5.31305497288036      3.88241567756164
  H           5.31916451541145      5.27321910833437      3.15563064357690
  C           4.15417137299871      6.62719385008496      4.33250636005458
  H           4.05781010013319      6.57620068564057      5.43883964267328
  C           5.15372772077995      7.73358184637201      3.94552211444197
  H           5.56807577579103      7.49890761502199      2.94059223618846
  H           4.58315905432217      8.67811472869654      3.83976892497722
  C           6.30637965128500      7.96576555523328      4.94785303531918
  H           6.98362599418643      8.69868599473615      4.45274916128488
  C           5.80414141650065      8.61208728678723      6.24674411279261
  H           5.11650972553049      7.93560036849461      6.79706684176866
  H           6.65007602551864      8.84099137737322      6.92704523878051
  H           5.25481501002548      9.55553153575950      6.04848035744039
  C           7.12642204472177      6.69980568972547      5.23109804143174
  H           6.53263025278802      5.94746801973920      5.79075614193842
  H           7.47688755422782      6.22200255020272      4.29512015574754
  H           8.01464642005002      6.94011379848119      5.85100082851909
  C           2.71243042799710      6.98381482911587      3.88348931384072
  O           2.16442183775453      8.00468950420947      4.32058257053255
  N           2.12231119591279      6.11294572534558      3.02293956535119
  H           2.67331394560710      5.28634454631980      2.78064670770736
  C           0.71380000729437      6.13580000092670      2.67659999911783
  H           0.30961380425577      7.13662164218757      2.91833651143872
  H           0.57607637013037      5.94055676462088      1.59475973101388
  C          10.88430001571651     -5.53920008923945      9.68700009929662
  N          10.92323522268255     -4.18157286919853     10.18697832242453
  H          11.83046442137825     -3.94246283306302     10.61007774742781
  C          10.63456981826901     -3.20140934753468      9.15060658941373
  H          10.89562257947268     -3.60736078935966      8.13946467888866
  C           9.13053466229641     -2.85420896565960      9.10648156802095
  H           8.55861474049737     -3.77533276516848      9.34730472141179
  H           8.87047371764472     -2.13152814129732      9.90829638296097
  C           8.57540356316348     -2.32944382432539      7.77176211485570
  O           7.36393984583713     -2.04533669436967      7.69115152787411
  O           9.43519462389091     -2.22615481302494      6.80293640550034
  C          11.55174803716521     -1.97878486344540      9.33877139314088
  O          12.37926791751161     -1.91029580733070     10.26769368472966
  N          11.40276675325444     -1.01354425668508      8.40338932680325
  C          12.20510000354895      0.18899999499482      8.40570001566646
  H          13.27903377740434     -0.02651333750450      8.21032912577960
  C          10.62419999872094     -5.45689999276043      1.91239999935725
  N          10.98776827012145     -4.06072238365643      2.15198806135847
  H          11.75192620156109     -4.00883454441032      2.83576961030450
  C           9.88700732996847     -3.19992108139771      2.58992212572485
  H           9.24375940006298     -3.67982906801115      3.36654026211906
  C          10.48437001053311     -1.89033487903903      3.17680332602815
  H          11.08243670415490     -2.17123349986935      4.07135729886440
  H          11.18946541634570     -1.47309627077510      2.42841874125629
  C           9.49539095542965     -0.83301059788254      3.54924431198058
  N           8.75522724807802     -0.87356141422076      4.71460680575092
  H           8.93380175817694     -1.53508080017426      5.57632614357379
  C           7.95496746599418      0.21518920805893      4.73389317338803
  H           7.27155774837911      0.44125348029982      5.56114781624252
  N           8.12929945697672      0.96277079548787      3.63589812004108
  C           9.09082688076461      0.31895742999840      2.88419097587208
  H           9.44642170779320      0.71751225198762      1.92785033747803
  C           8.94232993792511     -2.86347702175602      1.41797625655913
  O           7.72377648011968     -2.72519705219071      1.57543502432599
  N           9.59064180629497     -2.67578111607550      0.23417500173244
  H          10.58846160999013     -2.91914964208258      0.24643083291497
  C           8.93369999635430     -2.26659999563142     -0.98699999844336
  H           9.43312680276154     -1.37997919335000     -1.42943731810724
  H           6.27050767323302      6.10170908272744      0.97446131988056
  H           4.95024541978857      7.09568273073089      0.23477210271048
  H           4.83427650222019      5.29913707342774      0.27957623341732
  H           9.09444297118317      7.16047850793116     -5.37431110568798
  H           7.50466617205705      7.94391595972570     -5.65584631547133
  H           1.77314802483340      1.97039968119809      2.50276480598330
  H           2.95826410807508      3.17464737628958      1.94217460808239
  H           1.97459747748250      3.48955185221255      3.42995372131077
  H           0.14261799656577      5.37483916938680      3.25137965391060
  H          10.75253946550956     -1.23508461313034      7.62282524774624
  H          12.14482519653677      0.70480926514765      9.38627628666405
  H          11.83235309476480      0.87308975179338      7.62063704520264
  H          11.56595127498176     -5.72359678371372      8.81397922170957
  H          11.15595164583478     -6.25346966296236     10.49146384867635
  H           9.85701676136133     -5.80127015401565      9.35336863966188
  H           8.92361398636917     -3.07866044061194     -1.74609452376886
  H           7.88746296046693     -2.00245111701109     -0.74227335153309
  H          10.14360271275888     -5.95026586487641      2.79257897837528
  H           9.90948595389105     -5.51986986000367      1.06538842228983
  H          11.52793419238998     -6.03443575233652      1.63456668789941
  C          10.88567378060480      3.65452328880950      4.49481796240443
  C           9.91035884954513      4.20911807172796      3.75098903036456
  H          11.25353880018742      4.18417662130525      5.38396774841168
  H          11.31685587924973      2.67410065814153      4.24190014189299
  O           9.43128637246373      3.58542637154630      2.63379934218181
  H           9.43887880959709      5.17890783256692      3.97695398629905
  C           8.31091430640741      4.14529546992231      1.98149919288042
  O           8.03441863913366      5.33911557987518      2.11248916376805
  C           8.01674734332670      3.32412011885945      0.74464606647832
  H           7.09485805294561      3.68879887543075      0.25941722557831
  H           8.85235712261385      3.46424575027065      0.03150902196007
  H           7.93343120682953      2.24621739024585      0.96756599252689
