125
Coordinates from ORCA-job pes E -2799.523777901867
  C           5.53779999985100      6.14469998407299      0.14450002828042
  N           6.28406458480997      6.01677223145531     -1.10539500377906
  H           5.71285938031027      5.65839650529424     -1.88078141959464
  C           6.99647098284046      7.19162709089178     -1.57131751090664
  H           6.40212748117083      8.13235539305634     -1.38710751296960
  C           8.34054328359726      7.38015022691525     -0.80453618444296
  H           8.11573486549781      7.24558787428234      0.27467753025003
  C           9.41425079021587      6.37783313395833     -1.19645110099691
  H          10.23884277117671      6.37834412799129     -0.45837156117793
  H           8.97081368998565      5.36676663947739     -1.22910156849648
  H           9.83469990978887      6.60748674074216     -2.19582037270736
  O           8.87085815236008      8.70858000167035     -1.02325574320899
  H           8.29124535462091      9.34416905595103     -0.56234308484489
  C           7.17831831383250      7.10189987314138     -3.11233747940214
  O           6.54667758640061      6.27430138061278     -3.78699447958822
  N           8.04783331608142      7.99935006780943     -3.65402746404590
  H           8.56794776279363      8.58301373574210     -2.98324253111207
  C           8.43519999577872      7.99920001943515     -5.05870003027554
  H           8.85511407573531      8.98805627725360     -5.32029611712547
  C           2.52369999757157      2.70849999965099      2.85090000193437
  N           3.56595140461850      1.99985147815768      3.58137915585848
  H           3.17106377030431      1.57904042557041      4.42841310834924
  C           4.75299831402780      2.78633753879131      3.93498125210972
  H           5.27717693615546      2.23210245819973      4.74074770842155
  C           5.73360516597788      2.86263307802909      2.74803574477643
  H           5.78837781535805      1.83550724786052      2.32027613354845
  H           5.33846264305844      3.51908162192399      1.93769536589722
  O           7.00827267577331      3.32053377765202      3.13940220947802
  H           7.54440254483273      2.44812532260853      3.35275751376762
  C           4.33058856684167      4.13285843325763      4.57007615857351
  O           3.66216468007896      4.14902238256359      5.61314810139287
  N           4.59621850180835      5.27732248308634      3.86280427498295
  H           5.30440417377691      5.23164344991709      3.12556054492064
  C           4.16544182343073      6.59297510416085      4.32008601762360
  H           4.06572466333759      6.53415752782684      5.42585919696328
  C           5.17625314471636      7.69244129292262      3.94448888215368
  H           5.56647127959184      7.47925888338802      2.92497257298545
  H           4.61676713390408      8.64703777433794      3.87546328879839
  C           6.35391065713405      7.88431116114386      4.92587857642676
  H           7.01533272206991      8.64018322987360      4.44380836819234
  C           5.88601248752741      8.47473344341067      6.26369042121335
  H           5.22426038081475      7.76950338045904      6.80948855444530
  H           6.75067630764399      8.68772328982439      6.92532635825669
  H           5.32079129551779      9.41860975022318      6.11927281440635
  C           7.18717116723162      6.61258948947578      5.13492002981634
  H           6.61238425291502      5.83148112947030      5.67386786293333
  H           7.52199257626545      6.17731634235524      4.17312809106245
  H           8.08841367849822      6.83290817880286      5.74352476440280
  C           2.72878025843873      6.97003888747890      3.86848246108042
  O           2.19890849162732      8.00633644912680      4.29181147223515
  N           2.12201700497522      6.09588370230366      3.02298885789453
  H           2.65933903717759      5.25632424752152      2.79426865742708
  C           0.71379999442506      6.13579999811512      2.67659999710437
  H           0.31995529611586      7.13845632158844      2.92775869967931
  H           0.57291695767420      5.95192282676109      1.59299683624948
  C          10.88429999768560     -5.53920000517615      9.68700000988539
  N          10.91484822559803     -4.17783234868008     10.17622800373847
  H          11.81766931462153     -3.93337383854497     10.60611669381715
  C          10.63610814627682     -3.20427621947874      9.13103571947647
  H          10.91222663214850     -3.61447571741032      8.12514198724072
  C           9.13098318470994     -2.86261635115483      9.06839447115613
  H           8.55961009449845     -3.78041011720101      9.32114734297710
  H           8.86500334775922     -2.12806329560614      9.85789158404846
  C           8.57932960697589     -2.35497050182428      7.72455825032253
  O           7.35352011975582     -2.15399003769849      7.61616205838118
  O           9.45508674981797     -2.17216186389553      6.78268792193116
  C          11.55114447595449     -1.98055707185037      9.32698490281123
  O          12.37916342423862     -1.91800872138322     10.25661571327707
  N          11.40119901775569     -1.01134567514949      8.39754562029442
  C          12.20510000195175      0.18900000267543      8.40570000272045
  H          13.28077509159345     -0.02914216293156      8.22298417948384
  C          10.62419999908489     -5.45689999905474      1.91239999622941
  N          10.99447950012870     -4.06145522601120      2.15016487833447
  H          11.75850973987182     -4.01246606776572      2.83434427499693
  C           9.89964888556715     -3.19080730705653      2.58599478675314
  H           9.26001175473613     -3.65790111584672      3.37316269564944
  C          10.50693630916244     -1.87446338689514      3.14908521932137
  H          11.10529282099272     -2.14409737563359      4.04703080839371
  H          11.21391311529637     -1.47792554213274      2.39119519667922
  C           9.52968951698057     -0.79941320677664      3.50470896191419
  N           8.79899980402086     -0.80697666012919      4.67645487664233
  H           8.96166676322536     -1.46376539717000      5.53640062852130
  C           8.01168310029211      0.29412121286854      4.67717421181533
  H           7.33518071508656      0.54158166106988      5.50432743012231
  N           8.18397019405318      1.01996474152429      3.56564363873469
  C           9.13083080688227      0.34615248085870      2.82169467896223
  H           9.48160196673401      0.71755557582069      1.85193880388825
  C           8.95023752350311     -2.86518865707631      1.41568427932084
  O           7.73076569478754     -2.73578993337231      1.57221948498316
  N           9.59662843292008     -2.67129820318105      0.23179544166057
  H          10.59420276077098     -2.91529123575966      0.23960545304448
  C           8.93369999828857     -2.26660000223889     -0.98699999818552
  H           9.48316007554229     -1.43658523706680     -1.47609841444933
  H           6.23468050856908      6.21142052035083      1.00398689561547
  H           4.85511323347621      7.03345929256889      0.17262241514123
  H           4.92034488801870      5.23681044845688      0.29127898787528
  H           9.19493298337868      7.21702004949023     -5.27910721168768
  H           7.54973135149164      7.80093303766747     -5.69310082304890
  H           1.76608357961728      1.98316821689434      2.49072479508159
  H           2.95001925990147      3.19695800426962      1.95027697639632
  H           1.98270504316023      3.47542193277380      3.45654210796930
  H           0.13599685459556      5.37493609704784      3.24461726427054
  H          10.74596346432489     -1.23119630775969      7.61710831632698
  H          12.13583824553298      0.70925950943913      9.38362114111127
  H          11.84275233149357      0.87140768445324      7.61412986330735
  H          11.57518972706228     -5.72873806720778      8.82225905984751
  H          11.15003986293206     -6.24623186743257     10.49978482654553
  H           9.86114681347243     -5.80700749318783      9.34520835196141
  H           8.84292520202533     -3.10363585281977     -1.71382931671702
  H           7.91528700779740     -1.92005142028383     -0.72791235270450
  H          10.13978042053391     -5.94667810498282      2.79247176151659
  H           9.91063653673863     -5.51776647122191      1.06424771234331
  H          11.52595054806255     -6.03872303223671      1.63713806260579
  C          10.88290697956377      3.54502041568797      4.47192632704634
  C          10.05343224929982      4.21247201983686      3.65151182926508
  H          11.26367490398585      4.04182541210754      5.37450080341210
  H          11.17540326232214      2.50338699435222      4.27085204258993
  O           9.56716277605710      3.61561620406697      2.51486003078811
  H           9.70625050415531      5.24425003327396      3.81672464998834
  C           8.59650421081054      4.27121525188340      1.77421859538570
  O           8.33101508816100      5.45226550156310      1.94557176747065
  C           8.20878670555818      3.43454517846604      0.58398812170250
  H           7.38453041801193      3.92444173765917      0.03620422440935
  H           9.08579209010949      3.36256624253765     -0.09227786087255
  H           7.93204103647081      2.40864342971238      0.88360707036925
