125
Coordinates from ORCA-job pes E -2799.522660001715
  C           5.53780001069736      6.14469998204722      0.14450001338241
  N           6.27379808564625      6.01508029579810     -1.11120848470723
  H           5.69230411754392      5.67300666478320     -1.88625230666484
  C           7.00170082027737      7.18246453555084     -1.57174832429833
  H           6.42196705107225      8.13059083989739     -1.37828476866835
  C           8.35129658504597      7.34684483370341     -0.80889560631877
  H           8.12748803918654      7.20971877124043      0.27041163482981
  C           9.40895161511597      6.33123998155973     -1.20967653538115
  H          10.24243312122477      6.32668144743748     -0.48155496028244
  H           8.95437562869772      5.32478418953730     -1.23113234815843
  H           9.81979046981000      6.55123986681563     -2.21520581547802
  O           8.90018903080204      8.66848295268069     -1.02235840406146
  H           8.33097096464354      9.30998724098199     -0.55669135506238
  C           7.17509846300745      7.10222511372938     -3.11397229719232
  O           6.52787703008145      6.28984269054749     -3.79239623301281
  N           8.05441387700226      7.99222149592303     -3.65233435943027
  H           8.58668210971318      8.56191659320023     -2.97882497884186
  C           8.43519999938272      7.99919992234551     -5.05869990617556
  H           8.84940399151045      8.99084070293903     -5.31923294713953
  C           2.52370000108950      2.70849999714118      2.85090000085867
  N           3.57059791315021      2.00160900332710      3.57673742802387
  H           3.17949855726631      1.57641470298200      4.42329390129690
  C           4.75691079292335      2.78947836199381      3.93060886770244
  H           5.28125280659559      2.23302341957974      4.73473776464527
  C           5.73848497375613      2.86900269557224      2.74442070895526
  H           5.78438762954307      1.84534502873070      2.30724540666300
  H           5.35165445688382      3.53700067676188      1.94005760405687
  O           7.01838805461441      3.30946159488638      3.14290509407857
  H           7.54316768346081      2.42403781624096      3.35263669420932
  C           4.33464727414144      4.13356464420735      4.57055389044362
  O           3.67145971650314      4.14584335430919      5.61691226924493
  N           4.59517687153515      5.28068960200288      3.86550069040168
  H           5.29668301865171      5.23884170732551      3.12186911585739
  C           4.16147865736827      6.59349257189938      4.32750963449697
  H           4.06031345212259      6.52908769934351      5.43277287760735
  C           5.16950107407736      7.69758994237390      3.95797770174399
  H           5.56025881194189      7.49109989208433      2.93726101936049
  H           4.60695166066852      8.65075324629134      3.89448933827184
  C           6.34681346493249      7.88747188089722      4.94006226435372
  H           7.00476313945641      8.64946432176597      4.46286320979135
  C           5.87762762914873      8.46666727435041      6.28226075101500
  H           5.21907811966833      7.75506451929849      6.82364279774328
  H           6.74191834775453      8.67828882945065      6.94482255605715
  H           5.30866917357979      9.40934400187858      6.14487475553517
  C           7.18510734897673      6.61751486547005      5.13908800687407
  H           6.61428010217501      5.83068204760754      5.67395492809305
  H           7.51892766796781      6.19009703489573      4.17340174904552
  H           8.08655835562332      6.83677326978701      5.74778911793927
  C           2.72474262492144      6.96926128576154      3.87525964581156
  O           2.19209476404260      8.00293621855032      4.30156582058550
  N           2.12104335480629      6.09659838272284      3.02629223226207
  H           2.66029488812215      5.25933527105920      2.79392640013883
  C           0.71380000054281      6.13579999725996      2.67659999966793
  H           0.31622833601881      7.13438818900879      2.93787607368135
  H           0.57604026209431      5.96362842959099      1.59062510250317
  C          10.88429997223544     -5.53919989450801      9.68699990372222
  N          10.91829173881934     -4.17830311841323     10.17707929194091
  H          11.82276315299626     -3.93526923695071     10.60428320005070
  C          10.63773331480276     -3.20428612592576      9.13298082223875
  H          10.91200097602987     -3.61415575952083      8.12638157995057
  C           9.13236658477979     -2.86254477857711      9.07287583178320
  H           8.56092583228681     -3.77896324788439      9.33008833584188
  H           8.86872163126791     -2.12483780930075      9.86024744116510
  C           8.57865312115892     -2.35851378938070      7.72874836957085
  O           7.35231195956094     -2.16001558915799      7.62084400086564
  O           9.45335660540767     -2.17445432555651      6.78619961460769
  C          11.55310605581688     -1.98079677072921      9.32742509199422
  O          12.38314568210915     -1.91840793918766     10.25524842430964
  N          11.40081799229048     -1.01116609171480      8.39881547131191
  C          12.20510000148530      0.18899999934608      8.40570000180369
  H          13.28059874673846     -0.02971624100256      8.22270744280979
  C          10.62420000005309     -5.45690000330413      1.91239999375274
  N          10.99443539152198     -4.06155199227762      2.14961014211393
  H          11.75899638456503     -4.01225342715617      2.83317738866395
  C           9.89902317366061     -3.19243229649832      2.58640904816695
  H           9.25873180590883     -3.66202034579126      3.37160287661195
  C          10.50515453230739     -1.87784366404452      3.15457897310346
  H          11.10159538875757     -2.14990729866717      4.05296954616403
  H          11.21349951214712     -1.47816446022075      2.39957406773260
  C           9.52563411251998     -0.80506807795686      3.51000444061922
  N           8.79202617408873     -0.81510826412148      4.67977871942217
  H           8.95591809687896     -1.47002323940055      5.54177016550612
  C           8.00043750243509      0.28249188173181      4.67843011384899
  H           7.32094754272890      0.52790988612442      5.50371565294656
  N           8.17284987635653      1.00822486377361      3.56683664079453
  C           9.12450637985480      0.33846613451204      2.82535394720334
  H           9.47631333736309      0.71039819690674      1.85629866444686
  C           8.95005347122360     -2.86457866058361      1.41618711516704
  O           7.73081669588706     -2.73371020755876      1.57377096392331
  N           9.59616920073949     -2.67201111524828      0.23194241711056
  H          10.59407763783699     -2.91464670191813      0.24035415704618
  C           8.93369999915094     -2.26660000284790     -0.98699999931874
  H           9.46596737265458     -1.41693507311308     -1.46159696210088
  H           6.24144873099213      6.19035756264934      0.99958268862513
  H           4.87001263453452      7.04435933650406      0.18443695329599
  H           4.90561094485316      5.24597302015142      0.28525780845573
  H           9.19717835849634      7.22117682597689     -5.28612873690293
  H           7.54679866181975      7.79930107524303     -5.68833313727237
  H           1.76606261559316      1.98167513301595      2.49389387486790
  H           2.94531792647705      3.19747050572773      1.94822294727590
  H           1.98400371788684      3.47451364878439      3.45877129773731
  H           0.13730639020506      5.36673058058630      3.23473639806779
  H          10.74399078133218     -1.23044924949200      7.61952031220659
  H          12.13652877350759      0.70997842611975      9.38330775648255
  H          11.84261217985693      0.87103628193192      7.61394866949168
  H          11.57241191101773     -5.72912113947120      8.82011547197180
  H          11.15133566848303     -6.24724080306863     10.49849408173860
  H           9.85979148664397     -5.80527757575064      9.34795578815358
  H           8.86931475774429     -3.09625300299540     -1.72475599425902
  H           7.90548972621414     -1.94783926265957     -0.73103567909627
  H          10.14084257475601     -5.94649756344915      2.79315457431354
  H           9.90964614000203     -5.51792921127450      1.06510969284822
  H          11.52564323045766     -6.03877061889646      1.63617626802815
  C          10.87588732538667      3.56419031225751      4.47816276949145
  C          10.02360836160715      4.21231835420905      3.66531131839890
  H          11.24809510867620      4.06683324960181      5.38106747556876
  H          11.19628462744700      2.53215485481740      4.27025900736604
  O           9.54687535100485      3.60942971100571      2.52894061785767
  H           9.65030024177931      5.23387189378155      3.83759006072114
  C           8.55571398857499      4.24780807608571      1.79433747173303
  O           8.28479260710582      5.43017567078252      1.95366851489335
  C           8.19341642935347      3.40879710618259      0.59651005600332
  H           7.36212911074519      3.88149425944319      0.04419015718560
  H           9.07613397276954      3.36780843845004     -0.07492075610355
  H           7.94407923255820      2.37199939911227      0.88185734026878
