125
Coordinates from ORCA-job pes E -2799.524776224102
  C           5.53780000754002      6.14469997530775      0.14450003801723
  N           6.28804911069261      6.01689610018887     -1.10315016045563
  H           5.72075555386937      5.65239710782659     -1.87856024443230
  C           6.99503129025357      7.19393682231347     -1.57190811738313
  H           6.39611631096836      8.13228840778697     -1.39073592476707
  C           8.33792234682254      7.39106460083446     -0.80485576829083
  H           8.11276469142486      7.25609083292419      0.27431190404357
  C           9.41790073366243      6.39488086898695     -1.19560143037068
  H          10.24085598640303      6.39864350102203     -0.45571646789255
  H           8.98055121005934      5.38120655893359     -1.23184636281197
  H           9.83963197789068      6.62884698864374     -2.19340733989199
  O           8.86071977688817      8.72213228712014     -1.02457549492791
  H           8.27690601432942      9.35495878959900     -0.56514069731478
  C           7.17942049171564      7.10086240760593     -3.11221874918682
  O           6.55476944086910      6.26697865503326     -3.78563583635558
  N           8.04387421193975      8.00251737809446     -3.65505970521171
  H           8.55910713242527      8.59172787395557     -2.98530732419133
  C           8.43519999656111      7.99920000967331     -5.05870002123415
  H           8.85497557396067      8.98781340461176     -5.32131419679860
  C           2.52369999401957      2.70850000001277      2.85090000080809
  N           3.55578997505607      1.99898944825749      3.59501781985644
  H           3.15143221634708      1.58583673823326      4.44135844349710
  C           4.74272953379237      2.78338579063957      3.95364606228215
  H           5.26052411538822      2.23056115315124      4.76462404298445
  C           5.72916513795271      2.85337188295514      2.77135296099063
  H           5.79130526366769      1.82213511224875      2.35440790117122
  H           5.33148955586633      3.49833740811333      1.95277898200416
  O           6.99967634672922      3.32315939639124      3.16119958690709
  H           7.54567538874871      2.45786535217377      3.36641221439271
  C           4.31943797849812      4.13325327575218      4.58074594733940
  O           3.64264448704300      4.15560355890631      5.61833103866165
  N           4.59383531788561      5.27465685036605      3.87151193390447
  H           5.31047620619111      5.22474931555567      3.14263480819353
  C           4.16407836039444      6.59244494637648      4.32366176712385
  H           4.06387700269586      6.53863258213353      5.42964602389479
  C           5.17573255289034      7.68975669804250      3.94378357222288
  H           5.56703506460669      7.47155085567429      2.92579268332426
  H           4.61670496708645      8.64423601401506      3.86961362362383
  C           6.35247929536246      7.88619665785455      4.92543363600242
  H           7.01417260101554      8.64017192982314      4.44074837409931
  C           5.88324696448675      8.48228381491560      6.26024673166483
  H           5.22133716322638      7.77919958225803      6.80859735010119
  H           6.74726270211940      8.69862782711309      6.92164885660152
  H           5.31766440812853      9.42521086958392      6.11114861537468
  C           7.18588820161972      6.61562460435920      5.14083632666128
  H           6.61009317013096      5.83588602686125      5.68067688054622
  H           7.52351411188336      6.17737461959179      4.18143392185332
  H           8.08522452857413      6.83845734637526      5.75133530968022
  C           2.72775181974690      6.96930819957595      3.87075850914496
  O           2.19738630859154      8.00519820857405      4.29461660200814
  N           2.12208021088280      6.09627005352362      3.02341279330683
  H           2.65976345444126      5.25705546412976      2.79413498755397
  C           0.71379999430414      6.13579999769397      2.67659999705033
  H           0.31964415793675      7.13836308745316      2.92761586405588
  H           0.57343815671805      5.95181313266495      1.59296274135007
  C          10.88429999241132     -5.53919998762868      9.68699999408926
  N          10.91325192272166     -4.17767594208472     10.17582015737283
  H          11.81492701340759     -3.93281566711569     10.60786443675643
  C          10.63692722671073     -3.20485609219203      9.12930332775145
  H          10.91599498245747     -3.61549020726845      8.12439270454013
  C           9.13184901510141     -2.86388042865894      9.06192920399384
  H           8.55999426022879     -3.78213804162228      9.31193901929294
  H           8.86285348059538     -2.12999679752879      9.85099697278018
  C           8.58480224083623     -2.35542344993717      7.71651550238009
  O           7.36002915101873     -2.14904884780588      7.60589398126641
  O           9.46286455633818     -2.17797062710057      6.77585102101193
  C          11.55061925977994     -1.98053063087005      9.32683934295969
  O          12.37608162020665     -1.91652829788513     10.25862269035512
  N          11.40205727103134     -1.01192470351741      8.39650168300674
  C          12.20510000237969      0.18900000270747      8.40570000277985
  H          13.28121190434679     -0.02823761095579      8.22436401312122
  C          10.62419999934389     -5.45689999822881      1.91239999648861
  N          10.99893465451125     -4.06192069493455      2.14679519221384
  H          11.76507192917281     -4.01392787390970      2.82870051153774
  C           9.90774646250314     -3.18740048101782      2.58438398018549
  H           9.26919142116534     -3.65145350814213      3.37422612217498
  C          10.51979249400940     -1.87140767420394      3.14348941765326
  H          11.12120410779206     -2.14135353061024      4.03933750714110
  H          11.22452620772417     -1.47661971466320      2.38260339179831
  C           9.54541786535551     -0.79442196115595      3.50164853323506
  N           8.81369870917622     -0.80442078493666      4.67257558780947
  H           8.97310708235962     -1.46489451220326      5.53009214023747
  C           8.02878660981752      0.29841702247534      4.67644689922432
  H           7.35155578022765      0.54391063995828      5.50362351493737
  N           8.20363699282382      1.02820620686774      3.56801757815564
  C           9.14961065012276      0.35471714143400      2.82242420123638
  H           9.50177785062510      0.72825278951709      1.85393029590808
  C           8.95596456749534     -2.86104450174940      1.41632485764054
  O           7.73732513747468     -2.72763382140100      1.57612833411194
  N           9.59945504399264     -2.67133137644355      0.23020446432580
  H          10.59614627344529     -2.91888270172716      0.23521521215436
  C           8.93369999807743     -2.26660000205786     -0.98700000030587
  H           9.48954712244188     -1.44569218682570     -1.48405124638459
  H           6.23173613992426      6.22065866592028      1.00549907037777
  H           4.84827019485767      7.02826748955787      0.16729367301907
  H           4.92721518431785      5.23258262172873      0.29347658985022
  H           9.19616788786177      7.21711560112322     -5.27511570495998
  H           7.55179374222577      7.79874348436429     -5.69535163500524
  H           1.76745721267485      1.98461526775135      2.48480984439088
  H           2.96099168789525      3.19276262700860      1.95340591834709
  H           1.97864822787269      3.47887888454134      3.44833570574233
  H           0.13613768474679      5.37476331724499      3.24452868576422
  H          10.74914654786955     -1.23270654715585      7.61438036838612
  H          12.13416851012509      0.70910168208476      9.38357957304362
  H          11.84325922787342      0.87122651494502      7.61377276603850
  H          11.57761303446568     -5.72895137255957      8.82423827210661
  H          11.14789319976024     -6.24590479053063     10.50078079790158
  H           9.86214875609547     -5.80729174850783      9.34246481323998
  H           8.82920568494443     -3.10667130085780     -1.70854486369049
  H           7.92062452328927     -1.90734484963853     -0.72428588960829
  H          10.14089456775064     -5.94378582554493      2.79467188474452
  H           9.90814900056092     -5.51724767674117      1.06631608065545
  H          11.52366610560229     -6.04156213810453      1.63567879215105
  C          10.89404239933883      3.55933281931588      4.47471035054185
  C          10.07102800135385      4.23020780962869      3.65105160792452
  H          11.27373796932185      4.05451763566063      5.37861865140903
  H          11.18164252242093      2.51605218912798      4.27516379795718
  O           9.58595788798586      3.63317558757658      2.51308070747068
  H           9.72731295620456      5.26360268955997      3.81331743445580
  C           8.62457639443758      4.29062677858675      1.76613483729870
  O           8.34890796006111      5.46800211428262      1.94229185786569
  C           8.22705926714510      3.44833330965196      0.58440438718457
  H           7.39911056196803      3.93588019263484      0.04023738889040
  H           9.09763759829262      3.36343389193850     -0.09858005030174
  H           7.94875834211006      2.42614418431710      0.89551189719975
