125
Coordinates from ORCA-job pes E -2799.525623385970
  C           5.53780000320013      6.14469998297151      0.14450002395464
  N           6.28994875671109      6.01830303852839     -1.10213810911985
  H           5.72588958450652      5.64907031067229     -1.87765518092181
  C           6.99304395610943      7.19704226554786     -1.57231961441110
  H           6.39096943113930      8.13365018856883     -1.39291795199197
  C           8.33571242234207      7.40034095533461     -0.80640728021444
  H           8.11352418431081      7.26582418347380      0.27334356390702
  C           9.41996795192022      6.40876254183007     -1.19739672668514
  H          10.24338078300263      6.41688317376564     -0.45802833599747
  H           8.98753026505490      5.39293199282897     -1.23310037011371
  H           9.84013813441389      6.64412479853092     -2.19552100498029
  O           8.85265883385929      8.73355989832844     -1.02808615253222
  H           8.26633735032458      9.36434642727009     -0.56904762681703
  C           7.17914751350187      7.10148123237326     -3.11239090029527
  O           6.56045402005226      6.26195893000275     -3.78423993722055
  N           8.03892053201755      8.00683876034948     -3.65654541177834
  H           8.55047787202931      8.59982992590575     -2.98729759492485
  C           8.43519999658721      7.99919999347595     -5.05869999648452
  H           8.85413550009874      8.98765218401496     -5.32318963144824
  C           2.52369999859105      2.70849999905770      2.85090000177843
  N           3.54703960474874      1.99890613996306      3.60652302874878
  H           3.13433754376947      1.58950145748707      4.45063378833527
  C           4.73302905880790      2.78167375666726      3.97156317917269
  H           5.24421413701223      2.23056550582478      4.78791500870483
  C           5.72678273111247      2.84648532132585      2.79547159874860
  H           5.79778805734327      1.81198237797524      2.38830178296073
  H           5.32936738398971      3.48201217291244      1.96887235623648
  O           6.99151091321451      3.32714162174042      3.18897754601651
  H           7.54769639692471      2.46871565134013      3.38372155248162
  C           4.30853731471628      4.13460782018551      4.59135120982210
  O           3.62455066476676      4.16207506731100      5.62417817268991
  N           4.59061872517774      5.27293801723345      3.88020161534784
  H           5.31197541054002      5.21819724335639      3.15622965745225
  C           4.16282978868425      6.59375636716846      4.32565832614704
  H           4.05865397777078      6.54437250597237      5.43156475571581
  C           5.17848783062518      7.68685911387986      3.94474247088087
  H           5.57220052914614      7.46368993775297      2.92875366971356
  H           4.62197718244952      8.64236942221596      3.86509693749874
  C           6.35306563634648      7.88450733108324      4.92865250969994
  H           7.01676884122080      8.63625780102075      4.44324640121898
  C           5.88158790619104      8.48495722257568      6.26071774517452
  H           5.21836685370001      7.78380284041450      6.80996133777827
  H           6.74448567700386      8.70289033412713      6.92306132586478
  H           5.31669243432837      9.42765165591318      6.10761648775018
  C           7.18440931318117      6.61353441216781      5.14940047146763
  H           6.60653113207003      5.83578993271417      5.68983823963356
  H           7.52326926030548      6.17243017467120      4.19175860190509
  H           8.08294588929309      6.83676622330696      5.76093155642101
  C           2.72868330002798      6.97256122626268      3.86720721279516
  O           2.20094374729742      8.01300180810541      4.28319417993413
  N           2.12172856652337      6.09583235102343      3.02471466520417
  H           2.65756292391608      5.25383002206201      2.80139899024482
  C           0.71379999592742      6.13579999795230      2.67659999778230
  H           0.32131584738359      7.14076133900169      2.92059554317016
  H           0.57381513059416      5.94479045149303      1.59413362054414
  C          10.88429999071749     -5.53919997538261      9.68699998120007
  N          10.91099953308507     -4.17734689393681     10.17497847696235
  H          11.81106882629869     -3.93164718901626     10.60985629888373
  C          10.63743574584121     -3.20558257976990      9.12674466675885
  H          10.92033146837093     -3.61670753120441      8.12311051020521
  C           9.13226075540272     -2.86633409743716      9.05397600903317
  H           8.56064379756782     -3.78527031216121      9.30208403694745
  H           8.85963519822230     -2.13264392761911      9.84196346077006
  C           8.58942729027968     -2.35915025954579      7.70640368404085
  O           7.36516503742512     -2.15158337965463      7.59233760756248
  O           9.47023155669335     -2.18325064836873      6.76801898937548
  C          11.54882390350545     -1.97998158557221      9.32657621727989
  O          12.36976774440234     -1.91346830941599     10.26215894655219
  N          11.40373725822667     -1.01303455422060      8.39386109588485
  C          12.20510000178353      0.18900000202618      8.40570000222129
  H          13.28242814557047     -0.02707397651855      8.23036035283757
  C          10.62419999928194     -5.45690000017044      1.91239999554462
  N          11.00297912568949     -4.06239895368630      2.14390770580876
  H          11.77075714137620     -4.01539890407859      2.82403704295862
  C           9.91516367455325     -3.18430544517955      2.58284289340915
  H           9.27793327653525     -3.64508620269706      3.37565193909209
  C          10.53156698262689     -1.86806965992590      3.13690540086648
  H          11.13686078747862     -2.13731040040089      4.03042607075894
  H          11.23328578826389     -1.47528504723530      2.37222929303683
  C           9.55992276694652     -0.78945267265337      3.49772311039082
  N           8.82720990941823     -0.80114174374194      4.66809053265361
  H           8.98357391844338     -1.46513938834583      5.52330711651578
  C           8.04464217746476      0.30348812542738      4.67442064684105
  H           7.36674984484639      0.54745461572865      5.50151665744939
  N           8.22191815672805      1.03648463841807      3.56839223503320
  C           9.16719558080995      0.36290321156568      2.82155713278483
  H           9.52091975088053      0.73747215550793      1.85397033927887
  C           8.96084391365967     -2.85809511059845      1.41684150481441
  O           7.74305481811516     -2.72083826542600      1.57963556341923
  N           9.60168322983026     -2.67175802738837      0.22875446117587
  H          10.59772554680899     -2.92197601127717      0.23145671249722
  C           8.93369999854839     -2.26660000245068     -0.98699999830348
  H           9.49341242554486     -1.45138666878944     -1.48900473134502
  H           6.23142339450967      6.22749640418181      1.00517635705802
  H           4.84225405931899      7.02350914906451      0.16466894936461
  H           4.93404765420201      5.22851470728076      0.29649811846871
  H           9.19827872710307      7.21764267362509     -5.26954937613458
  H           7.55459426312166      7.79504265451957     -5.69805637206288
  H           1.76962099219423      1.98528168542122      2.47892796804630
  H           2.97030577504767      3.19049242997994      1.95687800131356
  H           1.97377515259289      3.48060976196011      3.44168403065967
  H           0.13428801246426      5.37974823055255      3.24929134402265
  H          10.75467385708847     -1.23570857529213      7.60916607526801
  H          12.12831225979888      0.71018737314420      9.38256338608757
  H          11.84649745958449      0.86973391065037      7.61102991610751
  H          11.58070205533100     -5.72930572041958      8.82681610780613
  H          11.14519801865475     -6.24531543262445     10.50216939911627
  H           9.86346688155325     -5.80796023536063      9.33908831289055
  H           8.82014437749345     -3.10828316187283     -1.70534889950127
  H           7.92421170185126     -1.89936359545251     -0.72148212290016
  H          10.14156047762399     -5.94123006331796      2.79642928493253
  H           9.90619021651002     -5.51673150130765      1.06794494603001
  H          11.52165708763691     -6.04416799361525      1.63469280641136
  C          10.90863007357899      3.58617617314142      4.47853511124681
  C          10.08786454035673      4.25665347061743      3.65260712165052
  H          11.28612489700783      4.08199332696912      5.38302514169036
  H          11.19628038111730      2.54261609474025      4.28061695154861
  O           9.60477788089915      3.65695064094869      2.51445281780155
  H           9.74347226288166      5.29012449935675      3.81247256174318
  C           8.65004256993241      4.31309244362313      1.76168171288535
  O           8.36438637550689      5.48705330125881      1.94074152162242
  C           8.24526011937727      3.46272417086268      0.58925340302368
  H           7.41331197179890      3.94484129113437      0.04657774862733
  H           9.11173700067257      3.37489957782836     -0.09864105059892
  H           7.97161471187309      2.44275288678293      0.91174291148316
