125
Coordinates from ORCA-job pes E -2799.514142554494
  C           5.53779995453740      6.14469987212595      0.14450014836354
  N           6.10469921605945      5.97908305178147     -1.19742605739489
  H           5.38720286489805      5.97507575962352     -1.93331304403510
  C           7.14208267572639      6.91903043913591     -1.58354986389518
  H           6.95887379611296      7.93858985061498     -1.14048947766801
  C           8.53093612258686      6.45869518284957     -1.04289477874349
  H           8.36833716963585      6.17900118395643      0.02127025659811
  C           9.11122396335646      5.27444321228317     -1.80014002382918
  H           9.99003554266127      4.86311310082460     -1.26667531866339
  H           8.34364776629722      4.48260860318784     -1.89004844423575
  H           9.43134964595599      5.56929159788466     -2.81980063879755
  O           9.49241360709762      7.53809683251156     -1.10907652602205
  H           9.27504255710509      8.17566231276522     -0.40322858823290
  C           7.12684291896106      7.12086257508172     -3.12515197886903
  O           6.18994010486339      6.70060443954457     -3.82122866836664
  N           8.19377334136637      7.80208568576000     -3.63411254313164
  H           8.94242344931572      8.02230435165343     -2.96115296312990
  C           8.43520000782659      7.99920035438441     -5.05870046369370
  H           8.98828586448275      8.94492077114256     -5.21425655333136
  C           2.52369996798773      2.70850001552939      2.85089999744562
  N           3.50251866810578      2.06171780630831      3.71786473582486
  H           3.04496230220183      1.76700464060471      4.58702789035698
  C           4.68592225107010      2.86346393868548      4.05391255395666
  H           5.18540630947291      2.35013304843365      4.90222162349169
  C           5.70098354044728      2.87213869778370      2.89407485630621
  H           5.64015205459254      1.86200782004951      2.41635257513404
  H           5.39488262201833      3.60255915242168      2.10536242740441
  O           6.99114607499638      3.15625106436153      3.36265059404817
  H           7.68668906266123      1.91410937772103      3.58293366751782
  C           4.25325923379430      4.24350864827461      4.60690351705298
  O           3.49328064424348      4.30319727147286      5.58528209731561
  N           4.61454032464430      5.36488336465414      3.90728865060396
  H           5.40036530091979      5.30100365659394      3.24914371196231
  C           4.15611020438832      6.68904022321194      4.31578258645254
  H           4.07809611998349      6.68627187941758      5.42484590976197
  C           5.12998492688515      7.79591716059251      3.86614546362046
  H           5.57257249717891      7.50408150336694      2.88949317551062
  H           4.53910771202991      8.71610480908969      3.68415194589653
  C           6.25532883822853      8.12763764216395      4.87181436803344
  H           6.93089719015959      8.83392164758671      4.33730623394087
  C           5.71319074784112      8.85947843022128      6.10765121169744
  H           5.01895946803527      8.21606266309105      6.68856019156401
  H           6.53905379812633      9.14927393451456      6.78956135567060
  H           5.15716957580275      9.77801923866206      5.82765160880644
  C           7.08847644283066      6.90010187623434      5.26340976646514
  H           6.49039941383911      6.17701393687015      5.85688426721611
  H           7.46763173176144      6.36628107766100      4.36916073189485
  H           7.95563673879467      7.19759693093964      5.88834149103687
  C           2.69963342408653      7.00634136481937      3.88645390722873
  O           2.12375178623297      7.99781860649490      4.35498978083823
  N           2.12912909976596      6.14664110803431      3.00133731275696
  H           2.70117515963547      5.34253344055170      2.73223417493528
  C           0.71380000525471      6.13580000580249      2.67659999753112
  H           0.29446929282715      7.13526544933672      2.89710542055363
  H           0.56645079006950      5.90853587499159      1.60268473763038
  C          10.88430005733998     -5.53920027841434      9.68700029331081
  N          10.88162695830104     -4.17859319093288     10.18205067830094
  H          11.76344029387897     -3.92463452831917     10.64728204090242
  C          10.61972459814462     -3.20505264411448      9.13283626170188
  H          10.90679563660470     -3.61510497730060      8.13149233737941
  C           9.11783451297181     -2.85919153686960      9.04801941109487
  H           8.54630322120197     -3.80235478740368      9.18939397297446
  H           8.81489346924810     -2.19759936049505      9.88493870442113
  C           8.62845541139454     -2.25524160943074      7.72624004076474
  O           7.51126542246794     -1.70741598213948      7.67155789844371
  O           9.44774333091454     -2.37703021702580      6.71895360936403
  C          11.51799062905192     -1.97229224182135      9.34115937179775
  O          12.28298874453199     -1.86830707245776     10.31686420038463
  N          11.42437822883309     -1.02927545365785      8.37248931355663
  C          12.20510000372437      0.18899999227585      8.40570002237902
  H          13.29103520375628     -0.00946096503712      8.27003299630320
  C          10.62419999581977     -5.45689998445973      1.91240000749667
  N          11.00969283270563     -4.06253990944260      2.13228340953769
  H          11.78848343032402     -4.01450731157083      2.79950438278076
  C           9.92741138435208     -3.18674735312376      2.58287423669522
  H           9.28833549410378     -3.65750905828538      3.36864814486126
  C          10.54410498517157     -1.88269565235005      3.16063508507961
  H          11.16761025220689     -2.16742277337464      4.03619131667634
  H          11.22412208022006     -1.45241609522330      2.39738111818441
  C           9.55660352407731     -0.83958264620461      3.57458488760568
  N           8.81001971065741     -0.94156051434871      4.73386857883221
  H           9.00169645103848     -1.65865265417681      5.59653201736022
  C           8.00467977104283      0.12824978701445      4.81532034938159
  H           7.31540483139827      0.32090877484246      5.64469455852887
  N           8.19643567203924      0.92049313142105      3.74711024495267
  C           9.16389265032356      0.33747452191970      2.95561788692199
  H           9.51313372112967      0.80286296873744      2.03012051931041
  C           8.97107891234086     -2.83264022282583      1.42485801551609
  O           7.76338667529454     -2.64187278865791      1.61016996140838
  N           9.59971063840811     -2.68658377935006      0.22589205812160
  H          10.58924131742333     -2.96316763439374      0.22295897324661
  C           8.93369999214656     -2.26659997976410     -0.98699999513975
  H           9.45610948623768     -1.40346133972629     -1.44859312750993
  H           6.29942789633127      5.94354026523411      0.92429125190834
  H           5.11315392745948      7.16722050817498      0.32294201884966
  H           4.71818300689495      5.41121425917644      0.28178492167468
  H           9.02425824218954      7.16389977973191     -5.49813168450623
  H           7.46544216205953      8.05250758349978     -5.58876609239059
  H           1.76978486157252      1.96374726564225      2.52402975568392
  H           3.01671238233259      3.09093120889263      1.93348528050215
  H           1.96971903056738      3.54634078404032      3.33721971752311
  H           0.16357468594116      5.38127247439456      3.28010546606861
  H          10.83634313833323     -1.26143441910657      7.55624966467894
  H          12.08092365682103      0.70898125869041      9.37742837191696
  H          11.86196512122599      0.85993699958667      7.59642136965873
  H          11.60589263477988     -5.71794757983105      8.84582603187394
  H          11.13045432499102     -6.24535113278513     10.50649456663376
  H           9.87611230778841     -5.81727356920288      9.31076717960123
  H           8.88060576748283     -3.08608726776789     -1.73595599525005
  H           7.90234503581044     -1.96267684174367     -0.72609717422556
  H          10.15654149061102     -5.93603965783842      2.80701122345998
  H           9.89158794392149     -5.51835687559760      1.08087820557553
  H          11.51518747515657     -6.04717186309817      1.62110786780693
  C          10.78514748197103      3.70554258577734      4.64489261487916
  C           9.72324439907136      4.15839680312173      3.94535534438376
  H          11.07491841179599      4.21231136021602      5.57536654622643
  H          11.36873739319908      2.83394512623447      4.31085425549607
  O           9.32210029734871      3.57585780720050      2.78690988830305
  H           9.11885903081320      5.02466598773020      4.26135370729566
  C           8.09477621816157      4.06297765566708      2.18691786899978
  O           7.81618024668508      5.27366810801054      2.28167028138879
  C           7.90385735747073      3.27521089596584      0.89981611285461
  H           6.98974806528216      3.61028182579384      0.37898172762495
  H           8.76639767138086      3.48159519403637      0.23850903181904
  H           7.85292067485263      2.18515956021188      1.07117720403519
