125
Coordinates from ORCA-job pes E -2799.518534597514
  C           5.53779996564784      6.14469998379963      0.14450001348246
  N           6.25976592188061      6.01166840962569     -1.11915824652028
  H           5.66160913090784      5.69892606793457     -1.89387095099919
  C           7.01526619068211      7.16581760657441     -1.56816220959349
  H           6.46101891332731      8.12581651516792     -1.35803471472404
  C           8.37137217496078      7.28428703363726     -0.80915266069760
  H           8.14679703877668      7.14513856512140      0.26998281271667
  C           9.39645789151819      6.24068771059252     -1.22123702720081
  H          10.23566893230123      6.21120389165275     -0.50020278470806
  H           8.91291413248705      5.24775341732968     -1.23892341566946
  H           9.80444634690899      6.45051421400087     -2.23017688070773
  O           8.95828678367877      8.59100809594857     -1.01416873409069
  H           8.41164547239141      9.24471049265232     -0.53861249253582
  C           7.17412567806582      7.10382478036783     -3.11310857970927
  O           6.49317265827408      6.32500447150317     -3.79802540482253
  N           8.07679047538789      7.97298004168458     -3.64649856928021
  H           8.63231570540672      8.51640134370200     -2.97000460412633
  C           8.43519999976374      7.99920004582004     -5.05870005853632
  H           8.86937576936279      8.98556374637541     -5.30660840916839
  C           2.52369999902425      2.70850000011014      2.85090000006395
  N           3.58684163911337      2.00932489870408      3.56118610752680
  H           3.21063867456557      1.57903773474837      4.41184376712286
  C           4.77323856048723      2.80266450170456      3.90263769353361
  H           5.30632448880043      2.24799426880922      4.70211614269158
  C           5.74631880213359      2.88423531832775      2.70911440810041
  H           5.76303978360415      1.87146716120537      2.24558442640028
  H           5.37777122051726      3.58360272611809      1.92443060244622
  O           7.04090462182114      3.27883965218430      3.11480824080422
  H           7.54427247503838      2.36533537471394      3.33858272934163
  C           4.35220466417523      4.14468792810813      4.54862873296606
  O           3.69769094258086      4.15035114003174      5.60026965541455
  N           4.60344583619182      5.29495801960600      3.84614557162756
  H           5.29632843436192      5.26112599277099      3.09414985789003
  C           4.16581300478296      6.60425414125925      4.31509950162365
  H           4.07310408230358      6.53639525683175      5.42079960360402
  C           5.16610505675937      7.71400478966117      3.94119456087027
  H           5.55369584587268      7.50985168026916      2.91880202582802
  H           4.59855134222406      8.66436136217779      3.88012823856416
  C           6.34588732747792      7.90900964893866      4.91938465197786
  H           7.00104348379013      8.67108635384327      4.43856153181473
  C           5.87886797677216      8.49051585689712      6.26135796119835
  H           5.22194227967465      7.77945725149551      6.80546724540608
  H           6.74435988445770      8.70418858553649      6.92167827715245
  H           5.30886118136062      9.43246285232721      6.12329357130051
  C           7.18722250307723      6.64109132728034      5.11908578546954
  H           6.61949660162729      5.85515252038977      5.65873803060123
  H           7.51817700013550      6.21142231478863      4.15315746269050
  H           8.09044238396773      6.86372869438246      5.72386561872333
  C           2.72436105240326      6.97273907343356      3.87289251024307
  O           2.18732840699109      8.00056259825963      4.30741600824766
  N           2.12219569145830      6.10131261700405      3.02129809449007
  H           2.66565151612272      5.26907945718386      2.78104550106890
  C           0.71380001400579      6.13579999934491      2.67660000243236
  H           0.31206658143735      7.13028832733758      2.94698633406620
  H           0.57305667642347      5.97139546861553      1.58978912093085
  C          10.88430000603801     -5.53920003143862      9.68700003912379
  N          10.92012308926310     -4.17907012471656     10.17945673767561
  H          11.82630728118965     -3.93672165044679     10.60338863700734
  C          10.63472968803358     -3.20270517315211      9.13867796744018
  H          10.90154798624801     -3.61140615418485      8.12975261639607
  C           9.12987413053870     -2.85759608334099      9.08880727806947
  H           8.55832213032391     -3.77485285056351      9.34324210599944
  H           8.87127891008655     -2.12452861206059      9.88204924845042
  C           8.57010838700588     -2.34555552650878      7.75042321049532
  O           7.34580786918684     -2.13002247305386      7.65336389635920
  O           9.43825230011258     -2.17630306110956      6.79876270019737
  C          11.55337934953338     -1.98088113789931      9.32926526773080
  O          12.38727027353297     -1.92020444672010     10.25359340302130
  N          11.39885578557910     -1.01015449238550      8.40190917977857
  C          12.20510000346863      0.18899999468235      8.40570001351749
  H          13.27944053057870     -0.03149758302100      8.21838445394927
  C          10.62419999936612     -5.45689999721202      1.91239999724276
  N          10.98685603426538     -4.06099790571906      2.15509988698487
  H          11.74828245087354     -4.00985174543885      2.84200548023340
  C           9.88478367429521     -3.19969513548267      2.58964903136575
  H           9.24173362537883     -3.67695939992278      3.36799251208143
  C          10.48173814439698     -1.88674264074954      3.16999147280325
  H          11.07138243966620     -2.16131391656034      4.07197832049492
  H          11.19485322159328     -1.48080221539007      2.42285724238734
  C           9.49580186805831     -0.81969646062093      3.52326360712194
  N           8.76160375646789     -0.83083464681331      4.69299085512778
  H           8.93340808595888     -1.48134368092978      5.55942199780025
  C           7.96473233103824      0.26209092863244      4.68977742575557
  H           7.28534853174261      0.50829098393231      5.51476488080918
  N           8.13482794938285      0.98469875681280      3.57526394926465
  C           9.08998686355892      0.31890549904664      2.83495402275390
  H           9.44117184242164      0.69289458692112      1.86681274810334
  C           8.94074256622885     -2.87018942459776      1.41553342788322
  O           7.72031206875207     -2.74400061370032      1.56800774881011
  N           9.59163763452112     -2.67155270397741      0.23489152495333
  H          10.59046194349417     -2.91028993399277      0.24763937860051
  C           8.93369999732274     -2.26659999762653     -0.98699999963314
  H           9.45915708303867     -1.40762810365537     -1.45234267561961
  H           6.24775747777263      6.14873410851028      0.99547732684516
  H           4.90313367901511      7.06730268984022      0.20359424077078
  H           4.87242559235172      5.26824549179005      0.27307753246780
  H           9.17434853435552      7.20796427962171     -5.31407956324103
  H           7.53218800003612      7.83320142495800     -5.67727792128110
  H           1.76487030368357      1.97597153460702      2.50885406113515
  H           2.92787964562171      3.19723907074201      1.93991268088053
  H           1.99030303097499      3.47379973485019      3.46512654710873
  H           0.14292158834861      5.35958223760327      3.23060800904420
  H          10.73819179533689     -1.22683455567676      7.62593874433189
  H          12.14108226333053      0.70989283891193      9.38362414639455
  H          11.84044618723746      0.87154043708100      7.61539516594323
  H          11.56844256466420     -5.72737026899697      8.81662838241717
  H          11.15533934499261     -6.24851465679478     10.49603686901529
  H           9.85827641225865     -5.80499405609932      9.35231411551893
  H           8.88519977891119     -3.09273786960763     -1.72974236278490
  H           7.89988243759888     -1.96166385964901     -0.73689739040583
  H          10.13972960594409     -5.95144723791344      2.78981776263274
  H           9.91309444941641     -5.51881864405235      1.06225643743352
  H          11.52911381042330     -6.03414825220087      1.63776662905148
  C          10.86531328087920      3.55487200248726      4.45913576749786
  C           9.96955984999535      4.17047860417976      3.66626567295750
  H          11.23585440042747      4.06971299642067      5.35584688580993
  H          11.22516976493928      2.53820712657378      4.24010004259577
  O           9.49325354666200      3.56080091116438      2.53716815876131
  H           9.56249558671791      5.17644464424196      3.85506339743032
  C           8.44574489673977      4.17232094991085      1.83491948435625
  O           8.19201186970406      5.36509036032685      1.97272030527457
  C           8.11979918767826      3.34197438233771      0.61535961967668
  H           7.28578819514000      3.80385806534124      0.05780459736819
  H           9.01191895058321      3.33317466808640     -0.04373667710362
  H           7.88647708891036      2.29458376611322      0.87470808465865
