125
Coordinates from ORCA-job pes E -2799.514298743695
  C           5.53779997437028      6.14469988178852      0.14450015922382
  N           6.10332031298060      5.98191696677506     -1.19816337750410
  H           5.38546374071033      5.97916927654058     -1.93377229936082
  C           7.14195304504231      6.92063399133604     -1.58404495720286
  H           6.96294389638890      7.93908166126304     -1.13707627757405
  C           8.53205327069135      6.45445857398970     -1.05051186148889
  H           8.37424634477349      6.17278411303879      0.01369143279732
  C           9.10488664387101      5.27049188972070     -1.81407146567189
  H           9.98784225822287      4.85739407728958     -1.28897382584429
  H           8.33527417883120      4.48003309384599     -1.89877600808887
  H           9.41673443406133      5.56587360962061     -2.83609087828001
  O           9.49651993607451      7.53100714574530     -1.11733662881549
  H           9.28279762927922      8.16807936687639     -0.40989283098174
  C           7.12386307328820      7.12583510910529     -3.12514069990395
  O           6.18504048488786      6.70869443186000     -3.82040498612507
  N           8.19185688507499      7.80518522626580     -3.63422428450664
  H           8.94216300385603      8.02198984791383     -2.96191023456361
  C           8.43520001190617      7.99920027556756     -5.05870037724728
  H           8.99075994786937      8.94322464136529     -5.21576957891581
  C           2.52369997163556      2.70850001268423      2.85089999821150
  N           3.49767089798901      2.05212056045712      3.71565011089879
  H           3.03641054286059      1.74967609730016      4.58013663096765
  C           4.68186662649776      2.84827849853977      4.06268885780399
  H           5.17422898269234      2.32948530545658      4.91171385455853
  C           5.70465687617193      2.85875140569158      2.90880093951740
  H           5.64949030119455      1.84668604774381      2.43378561703605
  H           5.39668741930942      3.58410130856723      2.11541812373695
  O           6.99137272574139      3.15007094191359      3.37882291643796
  H           7.66588683461336      1.93842503000506      3.58632075262825
  C           4.24859309412633      4.22658917095457      4.61903465694055
  O           3.48886568305969      4.28447765176093      5.59761804790590
  N           4.60767462876776      5.34973117255727      3.92043593188489
  H           5.39441887348655      5.28741530293105      3.26401683224077
  C           4.15071825290560      6.67328587094549      4.33246954484909
  H           4.06672153787786      6.66508550487442      5.44105057577558
  C           5.12995723565596      7.77954356410659      3.89300342594474
  H           5.57271641258845      7.49300525733084      2.91473588153265
  H           4.54270020145377      8.70314466395051      3.71680871851930
  C           6.25478894282052      8.10003230294238      4.90279883963672
  H           6.93249663023255      8.80942554741861      4.37515050628628
  C           5.71259090261651      8.82241495779633      6.14416585974890
  H           5.01708770911737      8.17506507534005      6.71912185188758
  H           6.53823280770183      9.10544858593835      6.82917333087129
  H           5.15806336148057      9.74397976524809      5.87126367061843
  C           7.08507302137414      6.86767297710653      5.28547329986393
  H           6.48480918953896      6.14036501175549      5.87140352632842
  H           7.46554167850710      6.34117076992313      4.38761721727704
  H           7.95137117493908      7.15860779661816      5.91465809560585
  C           2.69760902500523      6.99717254578536      3.89650955544663
  O           2.12375546339450      7.99067545864278      4.36333755966447
  N           2.12762421868942      6.14033001164949      3.00834958448340
  H           2.69756400036140      5.33380361510882      2.74199748584767
  C           0.71379999614674      6.13580000356388      2.67659999402819
  H           0.29786974844847      7.13692120979015      2.89601649031281
  H           0.57101037371148      5.91004062167321      1.60176408689676
  C          10.88430003680645     -5.53920019212265      9.68700020865772
  N          10.88517896613204     -4.17905225698599     10.18326225203744
  H          11.76913867110430     -3.92652296237691     10.64517858453559
  C          10.62022483723672     -3.20439466636707      9.13577497814167
  H          10.90348371883710     -3.61377130482857      8.13305491324028
  C           9.11824808681959     -2.85778343073019      9.05590459331731
  H           8.54711491100619     -3.80113153883328      9.19768872600133
  H           8.81796694891776     -2.19716117385057      9.89454395762140
  C           8.62535221986088     -2.25243619523748      7.73565254076179
  O           7.50692863397104     -1.70616349199242      7.68517680195932
  O           9.44181777148730     -2.37216385390984      6.72652282750745
  C          11.52004072997356     -1.97248524420800      9.34181556075260
  O          12.28887134092265     -1.86978906273595     10.31474837864192
  N          11.42370592460725     -1.02884573446041      8.37408366773882
  C          12.20510000243346      0.18899999215397      8.40570001815564
  H          13.29056767567106     -0.00993958759481      8.26691643034225
  C          10.62419999714809     -5.45689998500822      1.91240000397327
  N          11.00346027708252     -4.06138800648336      2.13718741261339
  H          11.77919226806417     -4.01210779354881      2.80787753872868
  C           9.91693318091656     -3.18882517154218      2.58474443008001
  H           9.27692467635049     -3.66115696997264      3.36876942386417
  C          10.52880395691989     -1.88272935926212      3.16382510991160
  H          11.15095789321009     -2.16647464928164      4.04068979350288
  H          11.21017901356241     -1.45205356498173      2.40193571918699
  C           9.54034403697401     -0.83936559101113      3.57589510756094
  N           8.79816767630245     -0.93613227402208      4.73828740193157
  H           8.99017461530986     -1.64971771756229      5.59844258063379
  C           7.99453575660367      0.13607097545917      4.81819051164733
  H           7.30917332111241      0.33122927880634      5.65033750403988
  N           8.18163422483714      0.92547461743774      3.74751975521249
  C           9.14536611014426      0.33668399449603      2.95547952777912
  H           9.49322046524417      0.79640192007264      2.02645938872115
  C           8.96355543808492     -2.83765093474407      1.42369568537847
  O           7.75411231482293     -2.65337041477836      1.60390838639947
  N           9.59665204279158     -2.68604366200010      0.22764668030468
  H          10.58736359323843     -2.95828850352754      0.22821839551801
  C           8.93369999419036     -2.26659999114738     -0.98699999730951
  H           9.45625554130862     -1.40243285352504     -1.44650951752443
  H           6.30404550383521      5.94904455188486      0.92089216895107
  H           5.10713427091498      7.16419366903562      0.32498235192524
  H           4.72433975870235      5.40496722919003      0.28445853457949
  H           9.02279551947019      7.16171668258918     -5.49601056508596
  H           7.46634376741426      8.05388403939267     -5.59027245955284
  H           1.77085364160168      1.96786899816617      2.51221520986265
  H           3.02131973409792      3.10008738320334      1.93988269233932
  H           1.96757277866626      3.54139876112875      3.34334583471957
  H           0.15757071836339      5.38304102236980      3.27676707198672
  H          10.83171250572322     -1.25981105320574      7.56017042885763
  H          12.08390866305365      0.70869520090258      9.37799050700700
  H          11.86003583359033      0.86035618276967      7.59761874168313
  H          11.60229888830466     -5.71803768059991      8.84275520495929
  H          11.13292143893375     -6.24639374717051     10.50486832587935
  H           9.87430233456102     -5.81575167344070      9.31453124887314
  H           8.88397646920614     -3.08567770877487     -1.73668545691201
  H           7.90114739066806     -1.96428447513924     -0.72897076269311
  H          10.15411490498208     -5.93987747642495      2.80367120439884
  H           9.89585972127995     -5.51929075285963      1.07719893340266
  H          11.51897910057882     -6.04290948089642      1.62416072042967
  C          10.80401487432849      3.69125530078150      4.63826074611969
  C           9.74608805021628      4.15626371791929      3.94224018918734
  H          11.09963196743750      4.19120528206677      5.57053981787760
  H          11.37813006518894      2.81501335591196      4.30023323222574
  O           9.33952654836324      3.57641106416349      2.78219620707916
  H           9.14774664990146      5.02612281388519      4.25887118538808
  C           8.13278171526811      4.07620485772592      2.17488708817281
  O           7.84815064859371      5.28094769835980      2.28132164186453
  C           7.91742233359844      3.28326571715480      0.89778409499068
  H           7.00096641324560      3.62651483833512      0.38683976620270
  H           8.77478218697337      3.47678872933009      0.22548803992591
  H           7.85703198157559      2.19523621545079      1.07624230366812
