125
Coordinates from ORCA-job pes E -2799.515904747785
  C           5.53779995580388      6.14469989057904      0.14450011181812
  N           6.23720496676336      5.97152257596857     -1.13102364119071
  H           5.59728863521919      5.76130679766076     -1.90753428023226
  C           7.11306559201407      7.04903661164750     -1.55228146789663
  H           6.70960663977054      8.05424758998298     -1.23988546993377
  C           8.51262604508567      6.91728332438141     -0.87974325898463
  H           8.32487619577484      6.75679665318744      0.20473854100419
  C           9.33494371475309      5.75779143693584     -1.41918393348686
  H          10.24534653075142      5.60502975200957     -0.80776622748313
  H           8.72593932718836      4.83432560876959     -1.39001580559416
  H           9.64615920343659      5.94122772331267     -2.46725488789119
  O           9.28444468919951      8.12903812957861     -1.04324250910532
  H           8.87689904053492      8.82135903720745     -0.48892467934241
  C           7.18041580589387      7.09254015636766     -3.10694729771338
  O           6.37000215325412      6.46093744083110     -3.80172944093495
  N           8.15652379496374      7.88622202632203     -3.63165551525849
  H           8.81798095217423      8.29007097872509     -2.95267437367239
  C           8.43520001014476      7.99920025317764     -5.05870033128239
  H           8.95448768268560      8.95575779533156     -5.25456934006171
  C           2.52369997727782      2.70850001015101      2.85089999990246
  N           3.44392710816687      2.15593405244446      3.84007733736193
  H           2.92331028763540      1.94977989189289      4.70032013711131
  C           4.57559543565670      3.02454789813613      4.18727132134245
  H           5.09172562355502      2.53983058441207      5.04365539050347
  C           5.61495928391419      3.06652384072396      3.04228557505581
  H           5.47985758231723      2.12511219025082      2.45674635448539
  H           5.41691303211373      3.91334764930926      2.34508061539880
  O           6.92411312850227      3.15249792942907      3.54218330661367
  H           7.63443847774956      1.90905974794738      3.55258127110219
  C           4.05662292433890      4.38433136851717      4.73207485313033
  O           3.13893840511547      4.38408674085237      5.57083131628564
  N           4.53789076393350      5.54491825045975      4.19588124768571
  H           5.45450149513930      5.54586080319147      3.69551378744431
  C           3.96034713365754      6.82201645819642      4.60831354021363
  H           3.89757841515533      6.84810015622711      5.71754634602008
  C           4.79095547899046      8.02384480666429      4.09153240852895
  H           5.41397035676960      7.68188794887265      3.23900435720762
  H           4.09464032363722      8.78573297965427      3.68475077612244
  C           5.68442128619585      8.71068823107036      5.14789655961049
  H           6.26562165661982      9.48041808950670      4.58996134339953
  C           4.85348992822290      9.44511985422207      6.20930405397125
  H           4.23807202591416      8.73798760190943      6.80431868005173
  H           5.51043072079199      9.99049978277968      6.91803237173605
  H           4.15763944434896     10.17649351743131      5.74885671813926
  C           6.69081652209856      7.74522456125887      5.78323622739818
  H           6.17531818046750      6.95766219079154      6.37364695484370
  H           7.30117341250646      7.23530041452325      5.01329449156686
  H           7.37208327961536      8.27941851385207      6.47689839659595
  C           2.48371745626559      6.97478890052559      4.17640892371093
  O           1.73369728011360      7.76096330399885      4.77076631041902
  N           2.09919103809850      6.25148196997630      3.09061331273147
  H           2.78101075951530      5.57540257208213      2.73730407792999
  C           0.71380001233712      6.13580000413697      2.67660000095238
  H           0.22706629363223      7.12889205938876      2.72406293013015
  H           0.66949710732710      5.76066187524034      1.63709251654393
  C          10.88430003487270     -5.53920017759840      9.68700019390156
  N          10.86151247360415     -4.17601770982375     10.17346967413953
  H          11.73057880406587     -3.91328288124155     10.65774255211925
  C          10.61812054458024     -3.20760398322378      9.11526915646009
  H          10.92443381332389     -3.62146659039893      8.12112521423061
  C           9.11731574736232     -2.86378561428384      9.00394427871093
  H           8.54593404128860     -3.81121006765626      9.11453259486070
  H           8.79627929855998     -2.22052304620537      9.84830423932068
  C           8.65036907900332     -2.23260059295194      7.68733471498380
  O           7.53453497785717     -1.68536065850097      7.62315987454001
  O           9.48873405413323     -2.33092017225018      6.69084668005100
  C          11.51287988643031     -1.97355679513277      9.33696975566687
  O          12.26188433749483     -1.86966318373513     10.32515151284900
  N          11.43217460112140     -1.03270580654916      8.36596876351188
  C          12.20510000440089      0.18899998796897      8.40570002445546
  H          13.28696250664062      0.00605711092718      8.22105513380558
  C          10.62419999656701     -5.45689998773195      1.91240000465073
  N          11.01174703150291     -4.06329236576274      2.13418067804195
  H          11.78486155391985     -4.01649315718164      2.80815715133324
  C           9.92739187967344     -3.18595535729852      2.57605867074074
  H           9.29652622360162     -3.64273459462118      3.37638927093964
  C          10.53893451829921     -1.86299700789304      3.11406552397885
  H          11.17537197446189     -2.11797510567994      3.98916492233957
  H          11.20587367214023     -1.44704467104551      2.33176374436691
  C           9.54627028467773     -0.82013587305890      3.51773328999032
  N           8.85699365247729     -0.88482321258638      4.71371319278530
  H           9.06409100088410     -1.59963880012490      5.58271620223831
  C           8.03792884355532      0.17345906146964      4.79054834455224
  H           7.38254333627238      0.39035558349773      5.64111354560450
  N           8.16203863317083      0.92305184379188      3.68139226382734
  C           9.09982910969479      0.32168748863289      2.86709226017531
  H           9.37962314871318      0.73615370103918      1.89381378648822
  C           8.96596426136788     -2.85781814979823      1.41643567359496
  O           7.75382032944392     -2.69268670260352      1.59526426032143
  N           9.59931279532504     -2.69162728885203      0.22278733751916
  H          10.59212147134903     -2.95569634105610      0.22083000938266
  C           8.93369999323292     -2.26659998320338     -0.98699999670498
  H           9.48394925818570     -1.43177392136654     -1.46720025212548
  H           6.24052238934688      6.13110267126793      1.00209673936347
  H           4.94192715420099      7.09294476655473      0.20122045903658
  H           4.84012110397296      5.29619975544674      0.28769197171823
  H           9.07211754722444      7.16385859685749     -5.42501118046313
  H           7.48511183654140      7.97744424121546     -5.62637873075235
  H           1.77355462770896      1.94005187229586      2.57449344017822
  H           3.07293787850656      2.97429644113036      1.92390657164340
  H           1.96596671924585      3.60922741094794      3.20076406825937
  H           0.14326349363191      5.44238316699783      3.33337020413948
  H          10.85545385376258     -1.27001643446327      7.54205229955607
  H          12.11460546473961      0.67521105058148      9.39797577021704
  H          11.82551597763073      0.88311969074370      7.63311132732902
  H          11.62596319651639     -5.71837504621367      8.86344970629061
  H          11.11687126717544     -6.23865442448278     10.51612718527189
  H           9.88666710413984     -5.82665653657458      9.29013943384546
  H           8.83814146830678     -3.09312898694152     -1.72450590112576
  H           7.91748646575309     -1.92017369628353     -0.71947792565807
  H          10.14779186028213     -5.93408611763875      2.80335471929720
  H           9.89854692790349     -5.51712654857923      1.07473371207878
  H          11.51615554246340     -6.04964232224999      1.62929635142314
  C           9.51424779011507      4.61431304242768      6.27764920847901
  C           8.60470027546822      4.66521909234263      5.28269933355214
  H           9.19407099608475      4.80502551625506      7.31086839212989
  H          10.57183155603827      4.37875205905349      6.08407568072306
  O           8.93120032216755      4.41263488502187      3.98752751292881
  H           7.54210829450731      4.89658073083197      5.45805110864438
  C           7.88525222233841      4.57727545241726      3.00718736851921
  O           7.14496259239116      5.59136112976388      3.07159446365231
  C           8.44795690052164      4.10509944454517      1.67821543523325
  H           7.62829430396932      3.99104267917850      0.94573446452020
  H           9.14700860108756      4.87689233031328      1.30095782213224
  H           8.99895217434582      3.15320950746123      1.77616294216426
