125
Coordinates from ORCA-job pes E -2799.517209608227
  C           5.53779997707162      6.14469988114906      0.14450017538760
  N           6.23567869673306      5.97283850825123     -1.13220176027100
  H           5.59476331855914      5.76457585013687     -1.90839945271767
  C           7.11024486238558      7.05140822222630     -1.55277800773711
  H           6.70409735271226      8.05627794657596     -1.24225126974006
  C           8.50877303893077      6.92456340218416     -0.87737903067663
  H           8.32016649550303      6.76615686821564      0.20722561315762
  C           9.33486708683853      5.76556483211969     -1.41197856276569
  H          10.24309513987329      5.61541267561355     -0.79681515825766
  H           8.72670870529210      4.84160832613058     -1.38110690131168
  H           9.64851906080399      5.94618876894351     -2.45979797660193
  O           9.27773522756711      8.13805064974018     -1.04292752189005
  H           8.87003080144122      8.82953198871352     -0.48772059051101
  C           7.17972048255038      7.09318959210274     -3.10727724071612
  O           6.37022358312339      6.46061493016153     -3.80245745725283
  N           8.15568838811549      7.88706768661896     -3.63186573590878
  H           8.81521316109876      8.29341842823835     -2.95238737787954
  C           8.43520001495366      7.99920030130599     -5.05870042206218
  H           8.94441194607533      8.96077266141542     -5.25683387015853
  C           2.52369997787117      2.70850001239467      2.85090000778959
  N           3.45828227510734      2.15886113379101      3.82868436335009
  H           2.94808746814623      1.95108348824115      4.69479916083107
  C           4.58768960578768      3.03477681690131      4.16460624231749
  H           5.11647432601665      2.55264213948128      5.01479441820382
  C           5.61006690654368      3.08256015348016      3.00634309088559
  H           5.48194248220518      2.13753798508258      2.42761379615385
  H           5.40690480128058      3.92649566181183      2.31038868261751
  O           6.92910507726536      3.17357271513317      3.49495247291123
  H           7.67655851188519      1.88555883083581      3.53766639019906
  C           4.06698151044250      4.39268492828527      4.71359887237293
  O           3.15208753738685      4.38695400780525      5.55590539069014
  N           4.54627880242235      5.55173240368227      4.17574218484058
  H           5.47200621883483      5.55155096039089      3.68068582844970
  C           3.96991508455780      6.82834078645514      4.59023045606071
  H           3.91197816427479      6.85712633073183      5.69979902775693
  C           4.80051022346098      8.02747587416882      4.06645522330752
  H           5.42103645750799      7.67814410369214      3.21523190564373
  H           4.10519445379627      8.78960050799660      3.65846125393398
  C           5.70123172049700      8.71404013363402      5.11678360524881
  H           6.28257772032295      9.48022778628904      4.55413900613122
  C           4.87847657382042      9.45405055740845      6.18062863558520
  H           4.26267747475873      8.75070105773083      6.77977908722243
  H           5.54100022833220      9.99783638953426      6.88543696710870
  H           4.18368097338700     10.18757335012505      5.72191053711144
  C           6.70688520432812      7.74536654303148      5.74882212230512
  H           6.19098026310716      6.96349694128022      6.34635437640978
  H           7.30798034147534      7.22759676213421      4.97660568991142
  H           7.39667006731053      8.27791331194667      6.43530731526372
  C           2.49138498835663      6.98062683866389      4.16481474125023
  O           1.74352046259127      7.76758229901932      4.76100535438339
  N           2.10149514487579      6.25462439910725      3.08255397075904
  H           2.78257888857988      5.57878263254637      2.72731739506702
  C           0.71379997607077      6.13580000573162      2.67659998625801
  H           0.22811837623160      7.12994363636711      2.71280905329372
  H           0.66456963407121      5.74689038289684      1.64243112062293
  C          10.88430004414438     -5.53920020069781      9.68700022428919
  N          10.85548300285108     -4.17504847560333     10.17045801238599
  H          11.72051844101054     -3.90961924999305     10.66038619851936
  C          10.61614558224462     -3.20853005686495      9.10979025760680
  H          10.92759681685768     -3.62348641449713      8.11777819998122
  C           9.11528381350068     -2.86650011927747      8.99201825522697
  H           8.54529907537257     -3.81583409755752      9.09363537682020
  H           8.78849386327885     -2.22855502477770      9.83806666482590
  C           8.65471557175490     -2.22899496175542      7.67705691710871
  O           7.54723759217158     -1.66648957523309      7.61181014332415
  O           9.49207304957756     -2.33888109978989      6.67930579945149
  C          11.50820009066970     -1.97288895987086      9.33464119877219
  O          12.25009385919419     -1.86569498840783     10.32758316774580
  N          11.43380466394296     -1.03376345111800      8.36132561021182
  C          12.20510000230828      0.18899997744103      8.40570002623317
  H          13.29109375783891      0.00353692115442      8.25133358688946
  C          10.62419999551228     -5.45689999168036      1.91239999604432
  N          11.02044082592036     -4.06476959770438      2.12673217609208
  H          11.79904916777045     -4.01968433108665      2.79444278279403
  C           9.94321145470887     -3.18183690079812      2.57386215644589
  H           9.31298003330432     -3.63636994647908      3.37606335521111
  C          10.56391768662080     -1.86371534060687      3.11239497777463
  H          11.20059359635239     -2.12339917804614      3.98589188037457
  H          11.23118708069826     -1.44941831642613      2.32953395048635
  C           9.57624332186745     -0.81770346547047      3.51915072993187
  N           8.88180530594303     -0.88478745738753      4.71224947869887
  H           9.08408662199944     -1.60934729495078      5.58824253521612
  C           8.06552884006088      0.17415345134777      4.78995219281738
  H           7.40610749629170      0.39134214769913      5.63724088105724
  N           8.19870264564986      0.92619730958089      3.68261415548233
  C           9.13777697059476      0.32660552992303      2.86862101529489
  H           9.42201748536994      0.74507905346574      1.89860553863954
  C           8.97776931761651     -2.84680462760109      1.41920667828659
  O           7.76864525598242     -2.66885791677750      1.60639938494664
  N           9.60418936319015     -2.69088099172813      0.22064312730263
  H          10.59454204910122     -2.96410038706904      0.21306360804110
  C           8.93369999670493     -2.26659998816430     -0.98699998624638
  H           9.48431661926211     -1.43506324464513     -1.47244424234204
  H           6.23967466955458      6.12327726998124      1.00288961636669
  H           4.94682250809838      7.09590224252319      0.20412753832340
  H           4.83483134321797      5.29965612867079      0.28353318268911
  H           9.08170608582743      7.16984164582169     -5.42187232257570
  H           7.48596790738086      7.96544692661491     -5.62714589216935
  H           1.77278489887682      1.93736679256612      2.58440996461206
  H           3.05998696246900      2.97594765317957      1.91679665772225
  H           1.96788403561087      3.60737709690720      3.20808218976368
  H           0.14550822299368      5.45194162850654      3.34524191933277
  H          10.86272440776993     -1.27041784109345      7.53417196200016
  H          12.08943474683021      0.68862317462240      9.38880203083704
  H          11.84519619420311      0.87295411116582      7.61496973040225
  H          11.63093820668572     -5.71834494226889      8.86799227446383
  H          11.11407718670962     -6.23605316596940     10.51905019733824
  H           9.88956750578111     -5.83020358936658      9.28543923625477
  H           8.83167602403939     -3.09509074049145     -1.72133571842983
  H           7.92012232110672     -1.91593385417010     -0.71514621591608
  H          10.15277510648069     -5.92890110486994      2.80873759490538
  H           9.89130644414693     -5.51602690608149      1.08099274022101
  H          11.51063025427906     -6.05517415678208      1.62365889132401
  C           9.46898637767901      4.55383637326212      6.27696776876404
  C           8.57182148329521      4.62493642015242      5.27045332144552
  H           9.14052243239571      4.74676122390331      7.30722496991147
  H          10.52531091175715      4.30328305036803      6.09493798603320
  O           8.90381750632324      4.38397927328026      3.97780330294275
  H           7.51199547090655      4.87505021978387      5.44131152700300
  C           7.83050887174651      4.52494720465597      2.99369585169512
  O           7.10975210638532      5.56462761923290      3.04979338072590
  C           8.43307884903850      4.09498419648169      1.66281660424693
  H           7.63073452440875      3.98389581434949      0.91019773042014
  H           9.12892014449630      4.88353857008462      1.31763755565146
  H           8.99598115660375      3.14822641820119      1.74995671977810
