125
Coordinates from ORCA-job pes E -2799.517902792423
  C           5.53779997116360      6.14469996558317      0.14450008205556
  N           6.23968280819651      5.97192479289722     -1.13006330509645
  H           5.60086420357056      5.76044061569741     -1.90712816533896
  C           7.11140229212527      7.05246850713153     -1.55190336134749
  H           6.70162932050086      8.05646655641819     -1.24341096708175
  C           8.50976478766235      6.93167869788242     -0.87500871734982
  H           8.32045299053364      6.77616595251697      0.20980351256921
  C           9.33941268769178      5.77336250420331     -1.40512691449814
  H          10.24833029912681      5.62876966314567     -0.78963360908067
  H           8.73381310763942      4.84797014489783     -1.36937637631876
  H           9.65145976828467      5.94976770233164     -2.45416564287733
  O           9.27508668103455      8.14722605259161     -1.04360178182398
  H           8.86580229394254      8.83852773857542     -0.48935581202446
  C           7.18149708496276      7.09163626188955     -3.10647296011142
  O           6.37387545891990      6.45564385864225     -3.80073999966576
  N           8.15568737770756      7.88710095611598     -3.63195138860117
  H           8.81376795865375      8.29615513391659     -2.95264660617781
  C           8.43519998929771      7.99920031495200     -5.05870041517478
  H           8.93088695897546      8.96732252576636     -5.25956101405131
  C           2.52369998452635      2.70850000344006      2.85090001769354
  N           3.46626971333526      2.15891556834818      3.82123269584458
  H           2.96231626993510      1.94915452192455      4.69053143252009
  C           4.59468752177113      3.03842120586867      4.15110099424527
  H           5.13266299984250      2.55618349038262      4.99550358767878
  C           5.60432995220728      3.09184494732912      2.98292318026954
  H           5.47872794445130      2.14617231883090      2.40645642898292
  H           5.39381050687481      3.93524997030183      2.29000609685009
  O           6.93086790968434      3.18383532477288      3.45982137429441
  H           7.69576312546218      1.87668955043612      3.52507447519653
  C           4.07168661062081      4.39330553225252      4.70673762787550
  O           3.15850979041359      4.38070612660805      5.55114348564402
  N           4.54798696867393      5.55360693806662      4.17104945972792
  H           5.47928431300103      5.55426744623593      3.67930162986561
  C           3.97047528331164      6.82825920195023      4.58972878097095
  H           3.91162155674923      6.85394308128440      5.69937730964497
  C           4.80105048374852      8.02920144598987      4.07000104358183
  H           5.41646519817156      7.68347381273958      3.21361296222124
  H           4.10516733427089      8.79552627185413      3.67093963032247
  C           5.70833546528744      8.70667153529494      5.12063906378640
  H           6.29090757106802      9.47335945102216      4.55988591149743
  C           4.89195157400513      9.44462145445390      6.19086932350778
  H           4.27434099073580      8.74055192669431      6.78731359663803
  H           5.55870055238977      9.98107368528472      6.89731781718029
  H           4.19958399572030     10.18420609739687      5.73821046148520
  C           6.71234017670329      7.73106709934328      5.74478681098535
  H           6.19489091495438      6.95128245221094      6.34375854879413
  H           7.30578424058533      7.21094985671322      4.96817361548554
  H           7.40870784183222      8.25835499106288      6.42867897120025
  C           2.49194878577210      6.98056254760168      4.16421811251500
  O           1.74361106766712      7.76697338680317      4.76075202861077
  N           2.10173499338532      6.25479880937313      3.08196536656084
  H           2.78378984843311      5.58082253459878      2.72502626852070
  C           0.71379997453621      6.13580000225938      2.67659998657716
  H           0.22957220115977      7.13096569014089      2.70498790185473
  H           0.66423601206736      5.73907107493386      1.64545755325143
  C          10.88430006976026     -5.53920028636009      9.68700030378503
  N          10.85046060851050     -4.17447031145386     10.16854812776879
  H          11.71220488079395     -3.90680984342451     10.66302736558827
  C          10.61462104465172     -3.20906631288766      9.10609403696319
  H          10.93035675267758     -3.62455374850416      8.11569447141584
  C           9.11376770833915     -2.86854649098771      8.98261324026860
  H           8.54521821065748     -3.81965089442344      9.07584936602029
  H           8.78200232379831     -2.23578578856833      9.83052523406243
  C           8.65897519536142     -2.22501568532976      7.66895294499409
  O           7.55692855388738     -1.65238650655383      7.60324821238053
  O           9.49638980392063     -2.34068538190172      6.67134472994920
  C          11.50447943900332     -1.97222539970957      9.33402498569090
  O          12.24000010126898     -1.86258772785394     10.33134117872995
  N          11.43591160991781     -1.03503571740652      8.35837843605620
  C          12.20510000335659      0.18899997680044      8.40570002586177
  H          13.29290795362921      0.00397476096782      8.26461083264717
  C          10.62419999579033     -5.45689999062734      1.91239999635193
  N          11.02530512792716     -4.06570201302829      2.12290338106113
  H          11.80641634317608     -4.02171884933678      2.78775402735822
  C           9.95190396681504     -3.17955015533018      2.57228179865030
  H           9.32265205519363     -3.63174455386452      3.37658017332308
  C          10.57753065314894     -1.86284971835081      3.10828227653964
  H          11.21479870207069     -2.12317152002045      3.98111937783669
  H          11.24444077709114     -1.45087797444902      2.32392028975951
  C           9.59231497243833     -0.81477889349790      3.51509429935086
  N           8.89743841295374     -0.88078286437806      4.70805334307920
  H           9.09691662969736     -1.60878081641305      5.58609899536454
  C           8.08124920580839      0.17773581963102      4.78508941411978
  H           7.42147785037199      0.39625228516874      5.63171234876941
  N           8.21589706260412      0.92809212279286      3.67634845083448
  C           9.15517074612764      0.32867248620223      2.86274000752804
  H           9.43971691053158      0.74709716928001      1.89287869516419
  C           8.98392730495931     -2.84252917291896      1.42021587337569
  O           7.77618630804425     -2.65944269957207      1.61154291003559
  N           9.60669568564836     -2.69118693029343      0.21923818405755
  H          10.59613004526897     -2.96767268298669      0.20878073443917
  C           8.93369999620603     -2.26659998856771     -0.98699998945687
  H           9.48166460470226     -1.43312487008003     -1.47220628295049
  H           6.23486329662221      6.11869791927313      1.00678418220034
  H           4.95023092586504      7.09812997660645      0.20252343854428
  H           4.83037565758026      5.30261227448060      0.27808786974175
  H           9.09390842420028      7.17812010980939     -5.41877353218358
  H           7.48696351347533      7.95011423076474     -5.62759116665542
  H           1.77205726020737      1.93658834732430      2.58886837182177
  H           3.05257082748384      2.97781008116241      1.91310942142423
  H           1.96945988431664      3.60619662874403      3.21329213755885
  H           0.14418729001972      5.45809300104063      3.35034625025242
  H          10.86913911048062     -1.27260633123063      7.52880392592386
  H          12.07768038902805      0.69353817986079      9.38487444763778
  H          11.85319595359553      0.86853054990883      7.60755049101390
  H          11.63527343959467     -5.71797957166314      8.87189336106279
  H          11.11143314079930     -6.23444006286791     10.52110452492257
  H           9.89208293405735     -5.83273606236208      9.28106754456588
  H           8.83274704396763     -3.09445232192853     -1.72211837468857
  H           7.91976257294409     -1.91853539669191     -0.71319709199429
  H          10.15468065928615     -5.92595269666923      2.81127330714534
  H           9.88808941778206     -5.51524101428071      1.08378845978552
  H          11.50775340257289     -6.05832700096312      1.62140175942171
  C           9.43324324956669      4.47438863241808      6.28910172311925
  C           8.54806090976013      4.58245739793083      5.27430636642826
  H           9.09931059448201      4.65710337368590      7.31950556824994
  H          10.48609691579479      4.20543254275928      6.11271044331735
  O           8.88707066862264      4.36427112693473      3.98134369336404
  H           7.49204826858949      4.85208547212594      5.44205269720616
  C           7.80286933408765      4.50412112703881      2.99189103435560
  O           7.09070912686801      5.55509937729104      3.05248224206300
  C           8.43148582653670      4.11140502994955      1.65895298502430
  H           7.64060533414869      4.01224687830636      0.89242392881299
  H           9.12466948150496      4.91460936513375      1.34456271352042
  H           9.00075103617364      3.16666028086440      1.72953290730478
