125
Coordinates from ORCA-job pes E -2799.516507558903
  C           5.53779997089092      6.14469984103807      0.14450018722297
  N           6.23414023504784      5.97173620752614     -1.13283074687938
  H           5.59184611489637      5.76505119915212     -1.90831162048714
  C           7.11101854330781      7.04860607142126     -1.55337428096133
  H           6.70873527417611      8.05404184383672     -1.23998812525753
  C           8.51006000920921      6.91515342973576     -0.87997853465059
  H           8.32021762091191      6.75187090199863      0.20369565076926
  C           9.33269105589648      5.75613146265434     -1.41978455990610
  H          10.24076658203881      5.60128920217232     -0.80549347029766
  H           8.72273667243742      4.83320497537634     -1.39358776561528
  H           9.64707326665493      5.94084988748163     -2.46668038233565
  O           9.28240069741035      8.12668794302067     -1.04073311549444
  H           8.87636921572096      8.81771595384484     -0.48372689886319
  C           7.17856262043600      7.09332171114318     -3.10770016111861
  O           6.36725628234204      6.46372525418083     -3.80336675852944
  N           8.15646162887899      7.88531738337929     -3.63170551393987
  H           8.81803514662333      8.28862228988035     -2.95255059608229
  C           8.43520002090272      7.99920028618709     -5.05870039344890
  H           8.95364450298739      8.95632412826007     -5.25416442676798
  C           2.52369996474434      2.70850001692338      2.85089999168033
  N           3.45033126956587      2.15724763858640      3.83495584982230
  H           2.93445862527281      1.94975331810204      4.69772154869855
  C           4.58120420402985      3.02855174061964      4.17748733488186
  H           5.10230920820974      2.54470403152177      5.03138731166732
  C           5.61297810550568      3.07351040210986      3.02703723734542
  H           5.48340723091929      2.13064046455525      2.44382867879824
  H           5.41317266184291      3.91921936706279      2.33063490036343
  O           6.92676408286975      3.16318016549613      3.52339941107181
  H           7.65386134488004      1.89483332670383      3.54408105712816
  C           4.06206248110270      4.38796999995128      4.72414120975536
  O           3.14666752874833      4.38552939492204      5.56562119478801
  N           4.54201719868936      5.54733888723266      4.18594105803315
  H           5.46165473449082      5.54739732689489      3.68610642440818
  C           3.96584070635952      6.82487483247798      4.59849902065650
  H           3.90322089735299      6.85163439710218      5.70779408851648
  C           4.79915493226667      8.02447445758115      4.08049552168916
  H           5.42131107386862      7.67835558061481      3.22906616821155
  H           4.10486911261629      8.78796595261200      3.67336591078750
  C           5.69597545534200      8.70838075640069      5.13595958490372
  H           6.27960938785670      9.47585522529024      4.57746251433749
  C           4.86873403960093      9.44595379440586      6.19806225553436
  H           4.25002970178870      8.74118975785286      6.79250694738032
  H           5.52826335262468      9.98759254460334      6.90727633589719
  H           4.17623861184063     10.18088791924800      5.73818601736496
  C           6.69908371600772      7.73862637921671      5.77012407379569
  H           6.18053558806502      6.95416001074713      6.36198098835836
  H           7.30518669900882      7.22466405192922      4.99946575977545
  H           7.38459330683433      8.26938861250722      6.46222842817313
  C           2.48907499155850      6.97956270363725      4.16785020371808
  O           1.74173155047405      7.76967002952544      4.76054942931581
  N           2.10044322680398      6.25188729922595      3.08650118722179
  H           2.78101225755965      5.57429190497806      2.73370065538710
  C           0.71380000500833      6.13580000553959      2.67659999836485
  H           0.22883868198531      7.13005181098567      2.71785446683576
  H           0.66653159022137      5.75298470690652      1.64004548983947
  C          10.88430002928292     -5.53920018124342      9.68700019387740
  N          10.86006633716106     -4.17573526988871     10.17267207256108
  H          11.72819488073725     -3.91256310155988     10.65836416621068
  C          10.61799181666383     -3.20797919485413      9.11364361072446
  H          10.92715458867681     -3.62197578180691      8.12041095107776
  C           9.11693924090227     -2.86611453195449      8.99921669888673
  H           8.54628717468176     -3.81384018120887      9.11082835658612
  H           8.79368296003690     -2.22161912463266      9.84180069057932
  C           8.65082358524558     -2.23790572520901      7.68112320116411
  O           7.53270313632465     -1.69620408652862      7.61281842820985
  O           9.49330210748020     -2.33139157119868      6.68726604740132
  C          11.51125117526265     -1.97297762572303      9.33690837267082
  O          12.25841596137931     -1.86838251802011     10.32633246726938
  N          11.43218531691283     -1.03267013310944      8.36523521105988
  C          12.20510000431838      0.18900000170672      8.40570002111183
  H          13.28820360598228      0.00482064593401      8.22992309351180
  C          10.62419999824884     -5.45689999278463      1.91240000751469
  N          11.01580006945810     -4.06400799414056      2.13069497380975
  H          11.79168262241645     -4.01796544634168      2.80151052301044
  C           9.93468560716866     -3.18435472465293      2.57510224052262
  H           9.30384894677272     -3.64047172678832      3.37589848662329
  C          10.55028449558748     -1.86401702705785      3.11432386236859
  H          11.18563624041668     -2.12143956082649      3.98944528141249
  H          11.21828511746189     -1.44860175432522      2.33267541463062
  C           9.55944186810953     -0.81987893359122      3.51841690433158
  N           8.86694557806884     -0.88529473976305      4.71254731993359
  H           9.07227849501703     -1.60280126653841      5.58359624853832
  C           8.04789230275116      0.17227398591568      4.78875194858380
  H           7.38971427897402      0.38929237881062      5.63706083310242
  N           8.17613404107616      0.92184078882149      3.67965206308159
  C           9.11605509910780      0.32214721153945      2.86670714943755
  H           9.39831989540678      0.73777212017534      1.89479679378451
  C           8.97155794960246     -2.85246533484881      1.41776875643885
  O           7.76080121781716     -2.68134610978287      1.60053936087984
  N           9.60171608026632     -2.69086759350946      0.22188998295531
  H          10.59332319787914     -2.95946592176784      0.21712451372488
  C           8.93369999124064     -2.26659997988688     -0.98699999862982
  H           9.48463093358272     -1.43410553330215     -1.47041006218904
  H           6.24135065326899      6.12678970675968      1.00143522051833
  H           4.94558513553704      7.09514554437447      0.20354916799363
  H           4.83655357473584      5.29880870083609      0.28660208284337
  H           9.07307067554131      7.16469967770663     -5.42529901039770
  H           7.48518329679632      7.97669601529477     -5.62644240583131
  H           1.77389894734717      1.93855335512450      2.57782496366438
  H           3.06733222879798      2.97631778237915      1.92117146708642
  H           1.96583645208202      3.60763401700462      3.20451150230543
  H           0.14381015189842      5.44818505541560      3.33992349743869
  H          10.85762704507313     -1.27078096631908      7.54012587103350
  H          12.10756160575217      0.67973567465224      9.39512435324463
  H          11.83158281596546      0.88003703156411      7.62742815650425
  H          11.62708770353616     -5.71831659480462      8.86446642013614
  H          11.11631560233518     -6.23793920097597     10.51687448515483
  H           9.88735636430875     -5.82769291289958      9.28914688789676
  H           8.83429791877343     -3.09456630696862     -1.72234766677616
  H           7.91900295385382     -1.91735585308122     -0.71746255659226
  H          10.15049619484671     -5.93174124319213      2.80602797519721
  H           9.89482321219768     -5.51656227764923      1.07794461926441
  H          11.51346848776199     -6.05217772040698      1.62622246665511
  C           9.50402478866074      4.59842409059564      6.26734995190935
  C           8.59533070925575      4.64785764587457      5.27068980538025
  H           9.18326824759074      4.79051166842723      7.30016106748620
  H          10.56238676166473      4.36478199505595      6.07520721534761
  O           8.92034673675874      4.39922586449926      3.97627555262429
  H           7.53286171782362      4.87943212906226      5.44860048569327
  C           7.85697927856286      4.54886814026839      2.99702642958944
  O           7.12746873796206      5.57593745630197      3.05636475685654
  C           8.43434177314076      4.09132304000969      1.66697635090038
  H           7.61998427516445      3.97927924770423      0.92787286429723
  H           9.13441967874336      4.86707811492023      1.30052067737263
  H           8.98805850094068      3.14022105743703      1.76036618293657
