125
Coordinates from ORCA-job pes E -2799.518441953776
  C           5.53779998219470      6.14469993836148      0.14450013287359
  N           6.23536888653607      5.97150487717579     -1.13242427946956
  H           5.59349029012176      5.76425828366450     -1.90805363091011
  C           7.10938138168076      7.05043949803346     -1.55350697933787
  H           6.70167805809607      8.05512146909258     -1.24423994492038
  C           8.50682927933156      6.92599281786010     -0.87547622051978
  H           8.31478972912510      6.76695785876123      0.20836843758924
  C           9.33612029787378      5.76821363228441     -1.40740724857368
  H          10.24262383337418      5.62021706406268     -0.78919181348967
  H           8.72969321540257      4.84320520609516     -1.37737518297257
  H           9.65234066926319      5.94854492842900     -2.45453670691196
  O           9.27405114375438      8.14063688582270     -1.03996381901335
  H           8.86538339815816      8.83102772633558     -0.48413742515011
  C           7.17989494081372      7.09122686335147     -3.10774687812758
  O           6.37171594412426      6.45731735380396     -3.80330984065903
  N           8.15568435692276      7.88569750426493     -3.63200319173152
  H           8.81393609113260      8.29360925330920     -2.95224170752858
  C           8.43519999024751      7.99920037222440     -5.05870049694797
  H           8.93154151428783      8.96719302956691     -5.25860057450997
  C           2.52369996362424      2.70850001004490      2.85090000453897
  N           3.47174118122361      2.15918986813902      3.81636193300339
  H           2.97167121175530      1.94729585336426      4.68738523042359
  C           4.59868324390499      3.04123967497858      4.14381327729648
  H           5.14049888108515      2.55959323750092      4.98613931277766
  C           5.60240250116973      3.09847379570227      2.97213411831469
  H           5.48592531280245      2.15043773596003      2.39898349817199
  H           5.38950936885414      3.94041195418335      2.27982173856284
  O           6.93239507268772      3.19893766794931      3.44865250415474
  H           7.70841843803215      1.86895760380669      3.52457748568830
  C           4.07549573321109      4.39584174444447      4.70044213271383
  O           3.16370429001165      4.38161446802654      5.54654326597674
  N           4.55209301668090      5.55473394200527      4.16358759248414
  H           5.48661713079571      5.55336394402677      3.67174464367461
  C           3.97554878675678      6.82981082554022      4.58173807760482
  H           3.91668127956160      6.85612671484344      5.69145412200559
  C           4.80839294144751      8.02904258101431      4.06189255482682
  H           5.42319498654814      7.68139848852284      3.20588323689600
  H           4.11436610819946      8.79730493728471      3.66336626290546
  C           5.71888821940532      8.70312987808308      5.11195847573999
  H           6.30263478130068      9.46878871044804      4.55102893392759
  C           4.90639417995941      9.44222875467818      6.18430873328067
  H           4.28800035284090      8.73930693696663      6.78131861159101
  H           5.57584301533685      9.97628785372404      6.89003845179219
  H           4.21513641035931     10.18402567252630      5.73354719512890
  C           6.72131772402759      7.72388361595764      5.73304564407394
  H           6.20305602283655      6.94544491436624      6.33305907480322
  H           7.31083963498622      7.20187834561608      4.95462520751998
  H           7.42137001256301      8.24851943923453      6.41523845113685
  C           2.49681678883479      6.98406057910576      4.15707606608267
  O           1.75069318630891      7.77333150236622      4.75268069103412
  N           2.10287311825627      6.25468477679692      3.07854363770864
  H           2.78372900611006      5.57943372974326      2.72176962723767
  C           0.71379997713859      6.13580000159483      2.67659998851875
  H           0.23063742116276      7.13154180972681      2.70288657781045
  H           0.66158836261507      5.73586711490438      1.64682156076115
  C          10.88430007332324     -5.53920036527416      9.68700035779994
  N          10.84948692941477     -4.17447096158404     10.16855079226531
  H          11.71051484928124     -3.90663085362997     10.66417398363551
  C          10.61486615931917     -3.20931273281585      9.10565718726571
  H          10.93181925299171     -3.62505492982544      8.11577007895600
  C           9.11420677524493     -2.86854647817716      8.98029802539845
  H           8.54474140750491     -3.81883744745430      9.07598378407521
  H           8.78208618364740     -2.23311611334398      9.82609295257869
  C           8.66092612683970     -2.22794038000015      7.66482184026390
  O           7.55837965409849     -1.65673685409211      7.59579655050361
  O           9.50009759802715     -2.34463466075758      6.66859933237556
  C          11.50426675873357     -1.97223460896890      9.33423511310739
  O          12.23844164185178     -1.86207194757451     10.33242627177184
  N          11.43666751991772     -1.03551287642185      8.35803520298741
  C          12.20510000660909      0.18900002240267      8.40570001503082
  H          13.29310655512815      0.00464051303497      8.26527422993405
  C          10.62419999754146     -5.45689999720434      1.91239999937200
  N          11.02737498903841     -4.06593894459627      2.12087532094151
  H          11.81012754554809     -4.02237120635029      2.78380441042536
  C           9.95597180501772     -3.17826862917932      2.57183298566416
  H           9.32669940278216     -3.63005855159194      3.37636977304097
  C          10.58413283918245     -1.86311206345225      3.10876763077521
  H          11.22107488872471     -2.12499876674995      3.98132372722918
  H          11.25132329108881     -1.45124437125268      2.32461680583636
  C           9.60008284788960     -0.81439133022606      3.51658449086044
  N           8.90355282241674     -0.88185252457536      4.70859752598564
  H           9.10171096993524     -1.61290786424940      5.58634974542340
  C           8.08715102158002      0.17584321596571      4.78665368752346
  H           7.42585243707555      0.39344666217830      5.63227312166594
  N           8.22398438325988      0.92719923209381      3.67852962014037
  C           9.16471837435705      0.32985460077651      2.86493653446613
  H           9.45008737882941      0.75032349387436      1.89631567127481
  C           8.98717614875338     -2.83838998026865      1.42117400151276
  O           7.78067017251492     -2.64980097496461      1.61518298887759
  N           9.60781641915531     -2.69137449634641      0.21864356327031
  H          10.59618246939893     -2.97171264107613      0.20664465040355
  C           8.93369999395825     -2.26659998466987     -0.98699999349276
  H           9.48359611705897     -1.43598697252538     -1.47489192611608
  H           6.23645345891779      6.11465659457998      1.00545923199287
  H           4.95428035478328      7.10052282170380      0.20527505573690
  H           4.82640338595447      5.30583088098712      0.27841807871395
  H           9.09325236283775      7.17804428349430     -5.41980095733742
  H           7.48678628211727      7.95138888299917     -5.62739986680278
  H           1.77265621333127      1.93528520785177      2.59110993319927
  H           3.04774713066196      2.98034603053125      1.91111106015911
  H           1.96933251008481      3.60435375213111      3.21739906337635
  H           0.14505541952669      5.46077158026419      3.35377092236271
  H          10.87140954365842     -1.27392264767330      7.52775480155753
  H          12.07674501631386      0.69348182514689      9.38476374897952
  H          11.85331592746516      0.86827844894455      7.60733967813847
  H          11.63645559944146     -5.71775926329350      8.87294907349667
  H          11.11039851352497     -6.23443492611854     10.52138560942700
  H           9.89271237241978     -5.83291766890418      9.27966499715245
  H           8.82836480046720     -3.09551024551477     -1.72027934567470
  H           7.92157258658950     -1.91448362900736     -0.71171587684456
  H          10.15639474033823     -5.92468763754458      2.81280249590498
  H           9.88600054811636     -5.51505250238341      1.08564795801416
  H          11.50636006298227     -6.05951527337797      1.61969012363782
  C           9.44160550495140      4.46862395251495      6.27449753693424
  C           8.55304317808972      4.57057231541386      5.26117845438386
  H           9.11113523363040      4.65938053452702      7.30459877096042
  H          10.49413397465696      4.19918144627762      6.09663911692883
  O           8.88389535692035      4.34701322882334      3.96883530539862
  H           7.49820102827211      4.84288003391370      5.43466104425367
  C           7.77807207518822      4.47485246456654      2.98295763146074
  O           7.07957077100838      5.54115948947952      3.04069728155963
  C           8.41608994576694      4.09443020880072      1.64801603563949
  H           7.62866946643712      3.99992691812377      0.87694266833909
  H           9.11106801171411      4.89899714298237      1.34246083260185
  H           8.98490984554046      3.14864051833115      1.71322119303536
