125
Coordinates from ORCA-job pes E -2799.518321224327
  C           5.53779996651939      6.14469988426500      0.14450019681359
  N           6.23705639558374      5.96866655086350     -1.13134015108793
  H           5.59585265777535      5.76052258022565     -1.90729181336037
  C           7.11177442426693      7.04673566899307     -1.55353939591353
  H           6.70513243380587      8.05159210733801     -1.24372386121253
  C           8.50987036938755      6.92169187748913     -0.87679187733597
  H           8.31841367803481      6.75953746842470      0.20650427472990
  C           9.34142045436969      5.76700774088462     -1.41223505334712
  H          10.24680993307460      5.61720595523192     -0.79278733557877
  H           8.73773556900238      4.84006631942067     -1.38819564204389
  H           9.65968143948715      5.95356497419256     -2.45766288049289
  O           9.27535023813517      8.13788995584735     -1.03911117869882
  H           8.86822534562058      8.82536147911546     -0.47858780605622
  C           7.18119986460612      7.08787960587488     -3.10776493799035
  O           6.37437124684049      6.45202640028260     -3.80315671577108
  N           8.15511939678520      7.88483211247985     -3.63210160965274
  H           8.81251545631643      8.29386607574332     -2.95216244659133
  C           8.43520001381960      7.99920037860334     -5.05870052233576
  H           8.91810933965459      8.97362849983841     -5.26055127718684
  C           2.52369996895491      2.70850001748949      2.85090000296211
  N           3.48806499856379      2.15485038458761      3.79805661712411
  H           3.00079789251245      1.93453361158496      4.67431012621481
  C           4.61128874081380      3.04413920628272      4.11777913182853
  H           5.17236494902315      2.55939520117445      4.94565618732772
  C           5.58840565762339      3.12139639022091      2.92690660308934
  H           5.47865489088238      2.17628746008090      2.35074606620025
  H           5.36177282296761      3.96890158306014      2.24890815122554
  O           6.93303708085050      3.22489979638744      3.38054459343537
  H           7.73998493906304      1.86098250512733      3.50123397901012
  C           4.08309943790134      4.38977501205703      4.69317390986091
  O           3.17589478756385      4.35783966434443      5.54420964462466
  N           4.55245929127007      5.55409750474850      4.16523121111529
  H           5.49627193862863      5.55668066192335      3.67597206914039
  C           3.96985402005731      6.82144676359137      4.59737117917757
  H           3.90450793110254      6.83355327519772      5.70707970508121
  C           4.80206675662087      8.02944164398799      4.09918914410397
  H           5.39630967120815      7.70408392596165      3.22001811471915
  H           4.10568507379471      8.81464913143349      3.73970791468499
  C           5.73748213015956      8.66440844697222      5.15199680870533
  H           6.32474520805960      9.43485873141510      4.60137315266680
  C           4.94956486567369      9.38952996359382      6.25205312920045
  H           4.32778589197999      8.68150763288945      6.83956327278679
  H           5.63551558586820      9.89580958452751      6.96244154556366
  H           4.26462208189439     10.15281438723781      5.82817056315116
  C           6.73374874772852      7.65718856734718      5.73747822058807
  H           6.21202997826067      6.87756290859159      6.33295910328957
  H           7.29996462142043      7.13806711362753      4.93985318981320
  H           7.45407259422238      8.15782428520471      6.41662060048550
  C           2.49238344356209      6.97773190442278      4.16748500032933
  O           1.74356303111861      7.76315367974442      4.76501164834490
  N           2.10146554727715      6.25279360410850      3.08476833441015
  H           2.78537301036119      5.58221985732061      2.72496179643296
  C           0.71379997422879      6.13580000629391      2.67659998410229
  H           0.23012546821858      7.13117644689036      2.70733092728835
  H           0.66584669996883      5.74228905045597      1.64413592535171
  C          10.88430005804042     -5.53920033712072      9.68700032488927
  N          10.84087378874433     -4.17349208176210     10.16517980847632
  H          11.69689381064554     -3.90180033632269     10.66743536697445
  C          10.61192598763288     -3.21006923962057      9.09946761730501
  H          10.93505572002988     -3.62699990477914      8.11208602409499
  C           9.11166500103111     -2.87010044744740      8.96575462378073
  H           8.54245828965518     -3.82116518884442      9.05528672418869
  H           8.77418291959002     -2.23759311276693      9.81158624336333
  C           8.66465067536615     -2.22537477047674      7.65053158157278
  O           7.56440941903086     -1.65105410422780      7.57757578343957
  O           9.50803428598222     -2.34166386181781      6.65678978186723
  C          11.49991644460609     -1.97231170688486      9.33231102386813
  O          12.22841210976103     -1.86215763560926     10.33457483460220
  N          11.43718701740329     -1.03569883641225      8.35568860358093
  C          12.20510001193420      0.18900003236477      8.40570001638264
  H          13.29119431476041      0.00836192915455      8.24608962200803
  C          10.62420000023761     -5.45690000607108      1.91240000447660
  N          11.03358639723049     -4.06699177857893      2.11568860894683
  H          11.81996274380316     -4.02480263828490      2.77439130843076
  C           9.96762412004021     -3.17458137063923      2.56977713504478
  H           9.33944735020873     -3.62316289177371      3.37698202455570
  C          10.60291767209469     -1.86159606706470      3.10366114867628
  H          11.23967259333465     -2.12460962042335      3.97594605392121
  H          11.27072997877783     -1.45380687494935      2.31793978979961
  C           9.62313263055517     -0.80855709460616      3.51034056778596
  N           8.92521194659278     -0.87262615647123      4.70195560045767
  H           9.11980306780228     -1.60948517669340      5.58369187621625
  C           8.11065757045400      0.18577938947974      4.77794838995778
  H           7.44827582038298      0.40723044753724      5.62163542736020
  N           8.25137014019406      0.93396762859308      3.66746917320367
  C           9.19191987867788      0.33477453161761      2.85509731578678
  H           9.47867428184392      0.75502834549905      1.88691488977454
  C           8.99564737183844     -2.83139559828105      1.42265855682979
  O           7.79136788791794     -2.63441734765766      1.62239574045182
  N           9.61118780589336     -2.69160258435089      0.21677292468425
  H          10.59794281523059     -2.97749935414445      0.20103035029167
  C           8.93369999090217     -2.26659997834481     -0.98699999959740
  H           9.48342830011958     -1.43753128004849     -1.47773227685616
  H           6.23441734638959      6.11433303198529      1.00750958535599
  H           4.95570707895284      7.10155326729894      0.20274389115770
  H           4.82417350373643      5.30749646933365      0.27729934115852
  H           9.10525641436053      7.18655991436390     -5.41700503048708
  H           7.48806544459391      7.93665287463907     -5.62799553282010
  H           1.77130513821834      1.93467024477112      2.59712781395972
  H           3.03207885458697      2.98848797307758      1.90489975014513
  H           1.97270745579447      3.59985659913085      3.23264935362667
  H           0.14273189036544      5.45629771803318      3.34731893652310
  H          10.87812377085128     -1.27525040851012      7.52173105553520
  H          12.09079488754297      0.68039340875172      9.39289109603597
  H          11.84018880115623      0.87770530827279      7.62134337893283
  H          11.64351536945071     -5.71696885503828      8.87935958385804
  H          11.10639738429471     -6.23157131937382     10.52481130388470
  H           9.89697471188554     -5.83753088099012      9.27267017865527
  H           8.82439214999880     -3.09616143013365     -1.71888444436448
  H           7.92325436481157     -1.91224475905992     -0.70848241519926
  H          10.15931936123313     -5.92090092128024      2.81625072295607
  H           9.88156036326690     -5.51413334111833      1.08958283150250
  H          11.50259293865851     -6.06342760502661      1.61650463673611
  C           9.41005104980534      4.31932851090660      6.27208136807720
  C           8.53403390474491      4.47716125541068      5.25308552053980
  H           9.07543026718787      4.48743369914673      7.30489300113829
  H          10.45785280418168      4.03121065943317      6.09480994481691
  O           8.86618479278789      4.29748554717728      3.95812487178579
  H           7.48473578684253      4.77031254830926      5.43324204793233
  C           7.72479843551259      4.43039781488504      2.96836925303057
  O           7.04903047249692      5.52246805981891      3.04727025173826
  C           8.40061312938064      4.12304509186619      1.62734379769628
  H           7.63187869068069      4.07133312608634      0.83293613154495
  H           9.10364808072559      4.94077533014678      1.38332580628361
  H           8.96613119491379      3.17241566760078      1.65310670067162
